! Generated by insertion_loss_tool
! Matrix convention: Sij means output port i due to input port j
# GHZ S RI R 50
0.01 0.00050265270788189223 0.099998736693296578 0.98164512351149535 -0.0049343281308190639 9.9998736693296576e-05 -5.0265270788188628e-07 9.9998736693296576e-05 -5.0265270788188628e-07
                 0.98164512351149535 -0.0049343281308190639 0.00050265270788189223 0.099998736693296578 9.9998736693296576e-05 -5.0265270788188628e-07 9.9998736693296576e-05 -5.0265270788188628e-07
                 9.9998736693296576e-05 -5.0265270788188628e-07 9.9998736693296576e-05 -5.0265270788188628e-07 0.00050265270788189223 0.099998736693296578 0.98164512351149535 -0.0049343281308190639
                 9.9998736693296576e-05 -5.0265270788188628e-07 9.9998736693296576e-05 -5.0265270788188628e-07 0.98164512351149535 -0.0049343281308190639 0.00050265270788189223 0.099998736693296578
0.20995 0.010533660231881656 0.099443662453266857 0.95058557662043897 -0.10069164025563354 9.9443662453266846e-05 -1.0533660231881643e-05 9.9443662453266846e-05 -1.0533660231881643e-05
                 0.95058557662043897 -0.10069164025563354 0.010533660231881656 0.099443662453266857 9.9443662453266846e-05 -1.0533660231881643e-05 9.9443662453266846e-05 -1.0533660231881643e-05
                 9.9443662453266846e-05 -1.0533660231881643e-05 9.9443662453266846e-05 -1.0533660231881643e-05 0.010533660231881656 0.099443662453266857 0.95058557662043897 -0.10069164025563354
                 9.9443662453266846e-05 -1.0533660231881643e-05 9.9443662453266846e-05 -1.0533660231881643e-05 0.95058557662043897 -0.10069164025563354 0.010533660231881656 0.099443662453266857
0.40989999999999999 0.020458352345462269 0.097884911091081439 0.92229344230778454 -0.19276315418098289 9.7884911091081445e-05 -2.0458352345462272e-05 9.7884911091081445e-05 -2.0458352345462272e-05
                 0.92229344230778454 -0.19276315418098289 0.020458352345462269 0.097884911091081439 9.7884911091081445e-05 -2.0458352345462272e-05 9.7884911091081445e-05 -2.0458352345462272e-05
                 9.7884911091081445e-05 -2.0458352345462272e-05 9.7884911091081445e-05 -2.0458352345462272e-05 0.020458352345462269 0.097884911091081439 0.92229344230778454 -0.19276315418098289
                 9.7884911091081445e-05 -2.0458352345462272e-05 9.7884911091081445e-05 -2.0458352345462272e-05 0.92229344230778454 -0.19276315418098289 0.020458352345462269 0.097884911091081439
0.60985 0.030176559905884068 0.095338214962556289 0.88797297460849722 -0.28106221281364874 9.5338214962556288e-05 -3.0176559905884061e-05 9.5338214962556288e-05 -3.0176559905884061e-05
                 0.88797297460849722 -0.28106221281364874 0.030176559905884068 0.095338214962556289 9.5338214962556288e-05 -3.0176559905884061e-05 9.5338214962556288e-05 -3.0176559905884061e-05
                 9.5338214962556288e-05 -3.0176559905884061e-05 9.5338214962556288e-05 -3.0176559905884061e-05 0.030176559905884068 0.095338214962556289 0.88797297460849722 -0.28106221281364874
                 9.5338214962556288e-05 -3.0176559905884061e-05 9.5338214962556288e-05 -3.0176559905884061e-05 0.88797297460849722 -0.28106221281364874 0.030176559905884068 0.095338214962556289
0.80979999999999996 0.039590197802883323 0.091829277672910908 0.84673069103719178 -0.365049539683174 9.1829277672910901e-05 -3.9590197802883311e-05 9.1829277672910901e-05 -3.9590197802883311e-05
                 0.84673069103719178 -0.365049539683174 0.039590197802883323 0.091829277672910908 9.1829277672910901e-05 -3.9590197802883311e-05 9.1829277672910901e-05 -3.9590197802883311e-05
                 9.1829277672910901e-05 -3.9590197802883311e-05 9.1829277672910901e-05 -3.9590197802883311e-05 0.039590197802883323 0.091829277672910908 0.84673069103719178 -0.365049539683174
                 9.1829277672910901e-05 -3.9590197802883311e-05 9.1829277672910901e-05 -3.9590197802883311e-05 0.84673069103719178 -0.365049539683174 0.039590197802883323 0.091829277672910908
1.0097499999999999 0.04860425492403328 0.087393514652287493 0.79853565104782809 -0.44410881635645039 8.7393514652287497e-05 -4.8604254924033262e-05 8.7393514652287497e-05 -4.8604254924033262e-05
                 0.79853565104782809 -0.44410881635645039 0.04860425492403328 0.087393514652287493 8.7393514652287497e-05 -4.8604254924033262e-05 8.7393514652287497e-05 -4.8604254924033262e-05
                 8.7393514652287497e-05 -4.8604254924033262e-05 8.7393514652287497e-05 -4.8604254924033262e-05 0.04860425492403328 0.087393514652287493 0.79853565104782809 -0.44410881635645039
                 8.7393514652287497e-05 -4.8604254924033262e-05 8.7393514652287497e-05 -4.8604254924033262e-05 0.79853565104782809 -0.44410881635645039 0.04860425492403328 0.087393514652287493
1.2097 0.057127753094484868 0.082075695710579114 0.74366931789679969 -0.5176216516831349 8.2075695710579115e-05 -5.7127753094484869e-05 8.2075695710579115e-05 -5.7127753094484869e-05
                 0.74366931789679969 -0.5176216516831349 0.057127753094484868 0.082075695710579114 8.2075695710579115e-05 -5.7127753094484869e-05 8.2075695710579115e-05 -5.7127753094484869e-05
                 8.2075695710579115e-05 -5.7127753094484869e-05 8.2075695710579115e-05 -5.7127753094484869e-05 0.057127753094484868 0.082075695710579114 0.74366931789679969 -0.5176216516831349
                 8.2075695710579115e-05 -5.7127753094484869e-05 8.2075695710579115e-05 -5.7127753094484869e-05 0.74366931789679969 -0.5176216516831349 0.057127753094484868 0.082075695710579114
1.4096500000000001 0.065074665312583421 0.07592949317923342 0.68257958709855882 -0.58499848108809083 7.5929493179233411e-05 -6.5074665312583421e-05 7.5929493179233411e-05 -6.5074665312583421e-05
                 0.68257958709855882 -0.58499848108809083 0.065074665312583421 0.07592949317923342 7.5929493179233411e-05 -6.5074665312583421e-05 7.5929493179233411e-05 -6.5074665312583421e-05
                 7.5929493179233411e-05 -6.5074665312583421e-05 7.5929493179233411e-05 -6.5074665312583421e-05 0.065074665312583421 0.07592949317923342 0.68257958709855882 -0.58499848108809083
                 7.5929493179233411e-05 -6.5074665312583421e-05 7.5929493179233411e-05 -6.5074665312583421e-05 0.68257958709855882 -0.58499848108809083 0.065074665312583421 0.07592949317923342
1.6095999999999999 0.072364784013680614 0.06901694020060116 0.61582355672822375 -0.64569565882879176 6.9016940200601162e-05 -7.2364784013680597e-05 6.9016940200601162e-05 -7.2364784013680597e-05
                 0.61582355672822375 -0.64569565882879176 0.072364784013680614 0.06901694020060116 6.9016940200601162e-05 -7.2364784013680597e-05 6.9016940200601162e-05 -7.2364784013680597e-05
                 6.9016940200601162e-05 -7.2364784013680597e-05 6.9016940200601162e-05 -7.2364784013680597e-05 0.072364784013680614 0.06901694020060116 0.61582355672822375 -0.64569565882879176
                 6.9016940200601162e-05 -7.2364784013680597e-05 6.9016940200601162e-05 -7.2364784013680597e-05 0.61582355672822375 -0.64569565882879176 0.072364784013680614 0.06901694020060116
1.80955 0.078924530598823178 0.061407804632273126 0.54403835248155341 -0.69922661874151215 6.140780463227314e-05 -7.8924530598823171e-05 6.140780463227314e-05 -7.8924530598823171e-05
                 0.54403835248155341 -0.69922661874151215 0.078924530598823178 0.061407804632273126 6.140780463227314e-05 -7.8924530598823171e-05 6.140780463227314e-05 -7.8924530598823171e-05
                 6.140780463227314e-05 -7.8924530598823171e-05 6.140780463227314e-05 -7.8924530598823171e-05 0.078924530598823178 0.061407804632273126 0.54403835248155341 -0.69922661874151215
                 6.140780463227314e-05 -7.8924530598823171e-05 6.140780463227314e-05 -7.8924530598823171e-05 0.54403835248155341 -0.69922661874151215 0.078924530598823178 0.061407804632273126
2.0095000000000001 0.084687698057808347 0.053178884885539734 0.46792276656477555 -0.74516985556399662 5.3178884885539739e-05 -8.4687698057808345e-05 5.3178884885539739e-05 -8.4687698057808345e-05
                 0.46792276656477555 -0.74516985556399662 0.084687698057808347 0.053178884885539734 5.3178884885539739e-05 -8.4687698057808345e-05 5.3178884885539739e-05 -8.4687698057808345e-05
                 5.3178884885539739e-05 -8.4687698057808345e-05 5.3178884885539739e-05 -8.4687698057808345e-05 0.084687698057808347 0.053178884885539734 0.46792276656477555 -0.74516985556399662
                 5.3178884885539739e-05 -8.4687698057808345e-05 5.3178884885539739e-05 -8.4687698057808345e-05 0.46792276656477555 -0.74516985556399662 0.084687698057808347 0.053178884885539734
2.2094499999999999 0.089596119191369339 0.044413234805021108 0.38822361520173421 -0.78317486787939328 4.4413234805021112e-05 -8.959611919136934e-05 4.4413234805021112e-05 -8.959611919136934e-05
                 0.38822361520173421 -0.78317486787939328 0.089596119191369339 0.044413234805021108 4.4413234805021112e-05 -8.959611919136934e-05 4.4413234805021112e-05 -8.959611919136934e-05
                 4.4413234805021112e-05 -8.959611919136934e-05 4.4413234805021112e-05 -8.959611919136934e-05 0.089596119191369339 0.044413234805021108 0.38822361520173421 -0.78317486787939328
                 4.4413234805021112e-05 -8.959611919136934e-05 4.4413234805021112e-05 -8.959611919136934e-05 0.38822361520173421 -0.78317486787939328 0.089596119191369339 0.044413234805021108
2.4094000000000002 0.093600253688176871 0.035199325412696922 0.30572433857074033 -0.81296659277876948 3.5199325412696924e-05 -9.3600253688176882e-05 3.5199325412696924e-05 -9.3600253688176882e-05
                 0.30572433857074033 -0.81296659277876948 0.093600253688176871 0.035199325412696922 3.5199325412696924e-05 -9.3600253688176882e-05 3.5199325412696924e-05 -9.3600253688176882e-05
                 3.5199325412696924e-05 -9.3600253688176882e-05 3.5199325412696924e-05 -9.3600253688176882e-05 0.093600253688176871 0.035199325412696922 0.30572433857074033 -0.81296659277876948
                 3.5199325412696924e-05 -9.3600253688176882e-05 3.5199325412696924e-05 -9.3600253688176882e-05 0.30572433857074033 -0.81296659277876948 0.093600253688176871 0.035199325412696922
2.6093500000000001 0.096659688131334048 0.025630151976787835 0.22123474474404045 -0.83434860043519343 2.5630151976787841e-05 -9.6659688131334043e-05 2.5630151976787841e-05 -9.6659688131334043e-05
                 0.22123474474404045 -0.83434860043519343 0.096659688131334048 0.025630151976787835 2.5630151976787841e-05 -9.6659688131334043e-05 2.5630151976787841e-05 -9.6659688131334043e-05
                 2.5630151976787841e-05 -9.6659688131334043e-05 2.5630151976787841e-05 -9.6659688131334043e-05 0.096659688131334048 0.025630151976787835 0.22123474474404045 -0.83434860043519343
                 2.5630151976787841e-05 -9.6659688131334043e-05 2.5630151976787841e-05 -9.6659688131334043e-05 0.22123474474404045 -0.83434860043519343 0.096659688131334048 0.025630151976787835
2.8092999999999999 0.098743543887838195 0.015802295417773126 0.13558138837011335 -0.84720519512885684 1.5802295417773132e-05 -9.8743543887838195e-05 1.5802295417773132e-05 -9.8743543887838195e-05
                 0.13558138837011335 -0.84720519512885684 0.098743543887838195 0.015802295417773126 1.5802295417773132e-05 -9.8743543887838195e-05 1.5802295417773132e-05 -9.8743543887838195e-05
                 1.5802295417773132e-05 -9.8743543887838195e-05 1.5802295417773132e-05 -9.8743543887838195e-05 0.098743543887838195 0.015802295417773126 0.13558138837011335 -0.84720519512885684
                 1.5802295417773132e-05 -9.8743543887838195e-05 1.5802295417773132e-05 -9.8743543887838195e-05 0.13558138837011335 -0.84720519512885684 0.098743543887838195 0.015802295417773126
3.0092500000000002 0.099830788764213377 0.0058149475246995876 0.049598350118995355 -0.85150251016903522 5.8149475246995942e-06 -9.9830788764213366e-05 5.8149475246995942e-06 -9.9830788764213366e-05
                 0.049598350118995355 -0.85150251016903522 0.099830788764213377 0.0058149475246995876 5.8149475246995942e-06 -9.9830788764213366e-05 5.8149475246995942e-06 -9.9830788764213366e-05
                 5.8149475246995942e-06 -9.9830788764213366e-05 5.8149475246995942e-06 -9.9830788764213366e-05 0.099830788764213377 0.0058149475246995876 0.049598350118995355 -0.85150251016903522
                 5.8149475246995942e-06 -9.9830788764213366e-05 5.8149475246995942e-06 -9.9830788764213366e-05 0.049598350118995355 -0.85150251016903522 0.099830788764213377 0.0058149475246995876
3.2092000000000001 0.099910449282797173 -0.0042310901798017957 -0.035881679390322017 -0.84728865530261477 -4.2310901798017896e-06 -9.9910449282797174e-05 -4.2310901798017896e-06 -9.9910449282797174e-05
                 -0.035881679390322017 -0.84728865530261477 0.099910449282797173 -0.0042310901798017957 -4.2310901798017896e-06 -9.9910449282797174e-05 -4.2310901798017896e-06 -9.9910449282797174e-05
                 -4.2310901798017896e-06 -9.9910449282797174e-05 -4.2310901798017896e-06 -9.9910449282797174e-05 0.099910449282797173 -0.0042310901798017957 -0.035881679390322017 -0.84728865530261477
                 -4.2310901798017896e-06 -9.9910449282797174e-05 -4.2310901798017896e-06 -9.9910449282797174e-05 -0.035881679390322017 -0.84728865530261477 0.099910449282797173 -0.0042310901798017957
3.4091499999999999 0.098981721436194159 -0.014234423821414904 -0.12003603501689192 -0.834692961893714 -1.42344238214149e-05 -9.8981721436194157e-05 -1.42344238214149e-05 -9.8981721436194157e-05
                 -0.12003603501689192 -0.834692961893714 0.098981721436194159 -0.014234423821414904 -1.42344238214149e-05 -9.8981721436194157e-05 -1.42344238214149e-05 -9.8981721436194157e-05
                 -1.42344238214149e-05 -9.8981721436194157e-05 -1.42344238214149e-05 -9.8981721436194157e-05 0.098981721436194159 -0.014234423821414904 -0.12003603501689192 -0.834692961893714
                 -1.42344238214149e-05 -9.8981721436194157e-05 -1.42344238214149e-05 -9.8981721436194157e-05 -0.12003603501689192 -0.834692961893714 0.098981721436194159 -0.014234423821414904
3.6091000000000002 0.097053978802059737 -0.024094090534596692 -0.20206041638153988 -0.81392436622873354 -2.4094090534596686e-05 -9.7053978802059729e-05 -2.4094090534596686e-05 -9.7053978802059729e-05
                 -0.20206041638153988 -0.81392436622873354 0.097053978802059737 -0.024094090534596692 -2.4094090534596686e-05 -9.7053978802059729e-05 -2.4094090534596686e-05 -9.7053978802059729e-05
                 -2.4094090534596686e-05 -9.7053978802059729e-05 -2.4094090534596686e-05 -9.7053978802059729e-05 0.097053978802059737 -0.024094090534596692 -0.20206041638153988 -0.81392436622873354
                 -2.4094090534596686e-05 -9.7053978802059729e-05 -2.4094090534596686e-05 -9.7053978802059729e-05 -0.20206041638153988 -0.81392436622873354 0.097053978802059737 -0.024094090534596692
3.80905 0.094146677936312637 -0.033710577472897511 -0.28117689402038887 -0.78526897101519577 -3.3710577472897504e-05 -9.4146677936312627e-05 -3.3710577472897504e-05 -9.4146677936312627e-05
                 -0.28117689402038887 -0.78526897101519577 0.094146677936312637 -0.033710577472897511 -3.3710577472897504e-05 -9.4146677936312627e-05 -3.3710577472897504e-05 -9.4146677936312627e-05
                 -3.3710577472897504e-05 -9.4146677936312627e-05 -3.3710577472897504e-05 -9.4146677936312627e-05 0.094146677936312637 -0.033710577472897511 -0.28117689402038887 -0.78526897101519577
                 -3.3710577472897504e-05 -9.4146677936312627e-05 -3.3710577472897504e-05 -9.4146677936312627e-05 -0.28117689402038887 -0.78526897101519577 0.094146677936312637 -0.033710577472897511
4.0090000000000003 0.090289161999634882 -0.042986826184352005 -0.35664153410541555 -0.74908682745142707 -4.2986826184351995e-05 -9.0289161999634873e-05 -4.2986826184351995e-05 -9.0289161999634873e-05
                 -0.35664153410541555 -0.74908682745142707 0.090289161999634882 -0.042986826184352005 -4.2986826184351995e-05 -9.0289161999634873e-05 -4.2986826184351995e-05 -9.0289161999634873e-05
                 -4.2986826184351995e-05 -9.0289161999634873e-05 -4.2986826184351995e-05 -9.0289161999634873e-05 0.090289161999634882 -0.042986826184352005 -0.35664153410541555 -0.74908682745142707
                 -4.2986826184351995e-05 -9.0289161999634873e-05 -4.2986826184351995e-05 -9.0289161999634873e-05 -0.35664153410541555 -0.74908682745142707 0.090289161999634882 -0.042986826184352005
4.2089499999999997 0.085520364599241616 -0.051829212214857957 -0.42775158823495407 -0.70580798396297217 -5.1829212214857959e-05 -8.5520364599241621e-05 -5.1829212214857959e-05 -8.5520364599241621e-05
                 -0.42775158823495407 -0.70580798396297217 0.085520364599241616 -0.051829212214857957 -5.1829212214857959e-05 -8.5520364599241621e-05 -5.1829212214857959e-05 -8.5520364599241621e-05
                 -5.1829212214857959e-05 -8.5520364599241621e-05 -5.1829212214857959e-05 -8.5520364599241621e-05 0.085520364599241616 -0.051829212214857957 -0.42775158823495407 -0.70580798396297217
                 -5.1829212214857959e-05 -8.5520364599241621e-05 -5.1829212214857959e-05 -8.5520364599241621e-05 -0.42775158823495407 -0.70580798396297217 0.085520364599241616 -0.051829212214857957
4.4089 0.079888416835022916 -0.060148490052482843 -0.49385219348402859 -0.65592785211262183 -6.014849005248284e-05 -7.9888416835022924e-05 -6.014849005248284e-05 -7.9888416835022924e-05
                 -0.49385219348402859 -0.65592785211262183 0.079888416835022916 -0.060148490052482843 -6.014849005248284e-05 -7.9888416835022924e-05 -6.014849005248284e-05 -7.9888416835022924e-05
                 -6.014849005248284e-05 -7.9888416835022924e-05 -6.014849005248284e-05 -7.9888416835022924e-05 0.079888416835022916 -0.060148490052482843 -0.49385219348402859 -0.65592785211262183
                 -6.014849005248284e-05 -7.9888416835022924e-05 -6.014849005248284e-05 -7.9888416835022924e-05 -0.49385219348402859 -0.65592785211262183 0.079888416835022916 -0.060148490052482843
4.6088500000000003 0.073450161516109821 -0.067860693875448852 -0.55434252917794224 -0.60000194483863678 -6.7860693875448856e-05 -7.3450161516109823e-05 -6.7860693875448856e-05 -7.3450161516109823e-05
                 -0.55434252917794224 -0.60000194483863678 0.073450161516109821 -0.067860693875448852 -6.7860693875448856e-05 -7.3450161516109823e-05 -6.7860693875448856e-05 -7.3450161516109823e-05
                 -6.7860693875448856e-05 -7.3450161516109823e-05 -6.7860693875448856e-05 -7.3450161516109823e-05 0.073450161516109821 -0.067860693875448852 -0.55434252917794224 -0.60000194483863678
                 -6.7860693875448856e-05 -7.3450161516109823e-05 -6.7860693875448856e-05 -7.3450161516109823e-05 -0.55434252917794224 -0.60000194483863678 0.073450161516109821 -0.067860693875448852
4.8087999999999997 0.066270579450839154 -0.074887985012617453 -0.60868137992954807 -0.53864004675878607 -7.4887985012617441e-05 -6.6270579450839159e-05 -7.4887985012617441e-05 -6.6270579450839159e-05
                 -0.60868137992954807 -0.53864004675878607 0.066270579450839154 -0.074887985012617453 -7.4887985012617441e-05 -6.6270579450839159e-05 -7.4887985012617441e-05 -6.6270579450839159e-05
                 -7.4887985012617441e-05 -6.6270579450839159e-05 -7.4887985012617441e-05 -6.6270579450839159e-05 0.066270579450839154 -0.074887985012617453 -0.60868137992954807 -0.53864004675878607
                 -7.4887985012617441e-05 -6.6270579450839159e-05 -7.4887985012617441e-05 -6.6270579450839159e-05 -0.60868137992954807 -0.53864004675878607 0.066270579450839154 -0.074887985012617453
5.00875 0.058422133600527726 -0.081159437563120718 -0.6563920588633716 -0.47249988058895592 -8.1159437563120706e-05 -5.842213360052774e-05 -8.1159437563120706e-05 -5.842213360052774e-05
                 -0.6563920588633716 -0.47249988058895592 0.058422133600527726 -0.081159437563120718 -8.1159437563120706e-05 -5.842213360052774e-05 -8.1159437563120706e-05 -5.842213360052774e-05
                 -8.1159437563120706e-05 -5.842213360052774e-05 -8.1159437563120706e-05 -5.842213360052774e-05 0.058422133600527726 -0.081159437563120718 -0.6563920588633716 -0.47249988058895592
                 -8.1159437563120706e-05 -5.842213360052774e-05 -8.1159437563120706e-05 -5.842213360052774e-05 -0.6563920588633716 -0.47249988058895592 0.058422133600527726 -0.081159437563120718
5.2087000000000003 0.049984037716460511 -0.086611754245942016 -0.69706665030414039 -0.40228033761735515 -8.6611754245942017e-05 -4.9984037716460517e-05 -8.6611754245942017e-05 -4.9984037716460517e-05
                 -0.69706665030414039 -0.40228033761735515 0.049984037716460511 -0.086611754245942016 -8.6611754245942017e-05 -4.9984037716460517e-05 -8.6611754245942017e-05 -4.9984037716460517e-05
                 -8.6611754245942017e-05 -4.9984037716460517e-05 -8.6611754245942017e-05 -4.9984037716460517e-05 0.049984037716460511 -0.086611754245942016 -0.69706665030414039 -0.40228033761735515
                 -8.6611754245942017e-05 -4.9984037716460517e-05 -8.6611754245942017e-05 -4.9984037716460517e-05 -0.69706665030414039 -0.40228033761735515 0.049984037716460511 -0.086611754245942016
5.4086499999999997 0.041041456841682512 -0.091189905254432158 -0.73036953729511522 -0.32871434354210155 -9.1189905254432149e-05 -4.1041456841682521e-05 -9.1189905254432149e-05 -4.1041456841682521e-05
                 -0.73036953729511522 -0.32871434354210155 0.041041456841682512 -0.091189905254432158 -9.1189905254432149e-05 -4.1041456841682521e-05 -9.1189905254432149e-05 -4.1041456841682521e-05
                 -9.1189905254432149e-05 -4.1041456841682521e-05 -9.1189905254432149e-05 -4.1041456841682521e-05 0.041041456841682512 -0.091189905254432158 -0.73036953729511522 -0.32871434354210155
                 -9.1189905254432149e-05 -4.1041456841682521e-05 -9.1189905254432149e-05 -4.1041456841682521e-05 -0.73036953729511522 -0.32871434354210155 0.041041456841682512 -0.091189905254432158
5.6086 0.031684647746867925 -0.094847683667851901 -0.75604018595224043 -0.25256143374319051 -9.4847683667851899e-05 -3.1684647746867927e-05 -9.4847683667851899e-05 -3.1684647746867927e-05
                 -0.75604018595224043 -0.25256143374319051 0.031684647746867925 -0.094847683667851901 -9.4847683667851899e-05 -3.1684647746867927e-05 -9.4847683667851899e-05 -3.1684647746867927e-05
                 -9.4847683667851899e-05 -3.1684647746867927e-05 -9.4847683667851899e-05 -3.1684647746867927e-05 0.031684647746867925 -0.094847683667851901 -0.75604018595224043 -0.25256143374319051
                 -9.4847683667851899e-05 -3.1684647746867927e-05 -9.4847683667851899e-05 -3.1684647746867927e-05 -0.75604018595224043 -0.25256143374319051 0.031684647746867925 -0.094847683667851901
5.8085500000000003 0.022008047975779384 -0.097548171814215948 -0.77389516570805217 -0.1746001141627182 -9.7548171814215939e-05 -2.2008047975779389e-05 -9.7548171814215939e-05 -2.2008047975779389e-05
                 -0.77389516570805217 -0.1746001141627182 0.022008047975779384 -0.097548171814215948 -9.7548171814215939e-05 -2.2008047975779389e-05 -9.7548171814215939e-05 -2.2008047975779389e-05
                 -9.7548171814215939e-05 -2.2008047975779389e-05 -9.7548171814215939e-05 -2.2008047975779389e-05 0.022008047975779384 -0.097548171814215948 -0.77389516570805217 -0.1746001141627182
                 -9.7548171814215939e-05 -2.2008047975779389e-05 -9.7548171814215939e-05 -2.2008047975779389e-05 -0.77389516570805217 -0.1746001141627182 0.022008047975779384 -0.097548171814215948
6.0084999999999997 0.012109322694510807 -0.099264113877474414 -0.78382939183105116 -0.095620085369827232 -9.9264113877474403e-05 -1.2109322694510812e-05 -9.9264113877474403e-05 -1.2109322694510812e-05
                 -0.78382939183105116 -0.095620085369827232 0.012109322694510807 -0.099264113877474414 -9.9264113877474403e-05 -1.2109322694510812e-05 -9.9264113877474403e-05 -1.2109322694510812e-05
                 -9.9264113877474403e-05 -1.2109322694510812e-05 -9.9264113877474403e-05 -1.2109322694510812e-05 0.012109322694510807 -0.099264113877474414 -0.78382939183105116 -0.095620085369827232
                 -9.9264113877474403e-05 -1.2109322694510812e-05 -9.9264113877474403e-05 -1.2109322694510812e-05 -0.78382939183105116 -0.095620085369827232 0.012109322694510807 -0.099264113877474414
6.20845 0.0020883789645906219 -0.099978190988336324 -0.78581658411275646 -0.016414408063044419 -9.9978190988336322e-05 -2.0883789645906282e-06 -9.9978190988336322e-05 -2.0883789645906282e-06
                 -0.78581658411275646 -0.016414408063044419 0.0020883789645906219 -0.099978190988336324 -9.9978190988336322e-05 -2.0883789645906282e-06 -9.9978190988336322e-05 -2.0883789645906282e-06
                 -9.9978190988336322e-05 -2.0883789645906282e-06 -9.9978190988336322e-05 -2.0883789645906282e-06 0.0020883789645906219 -0.099978190988336324 -0.78581658411275646 -0.016414408063044419
                 -9.9978190988336322e-05 -2.0883789645906282e-06 -9.9978190988336322e-05 -2.0883789645906282e-06 -0.78581658411275646 -0.016414408063044419 0.0020883789645906219 -0.099978190988336324
6.4084000000000003 -0.0079536426111917313 -0.099683196022265635 -0.77990894319654436 0.062228311801639971 -9.968319602226564e-05 7.9536426111917268e-06 -9.968319602226564e-05 7.9536426111917268e-06
                 -0.77990894319654436 0.062228311801639971 -0.0079536426111917313 -0.099683196022265635 -9.968319602226564e-05 7.9536426111917268e-06 -9.968319602226564e-05 7.9536426111917268e-06
                 -9.968319602226564e-05 7.9536426111917268e-06 -9.968319602226564e-05 7.9536426111917268e-06 -0.0079536426111917313 -0.099683196022265635 -0.77990894319654436 0.062228311801639971
                 -9.968319602226564e-05 7.9536426111917268e-06 -9.968319602226564e-05 7.9536426111917268e-06 -0.77990894319654436 0.062228311801639971 -0.0079536426111917313 -0.099683196022265635
6.6083499999999997 -0.017915388692993601 -0.098382106340426351 -0.76623605358731239 0.13953164087686765 -9.8382106340426354e-05 1.7915388692993594e-05 -9.8382106340426354e-05 1.7915388692993594e-05
                 -0.76623605358731239 0.13953164087686765 -0.017915388692993601 -0.098382106340426351 -9.8382106340426354e-05 1.7915388692993594e-05 -9.8382106340426354e-05 1.7915388692993594e-05
                 -9.8382106340426354e-05 1.7915388692993594e-05 -9.8382106340426354e-05 1.7915388692993594e-05 -0.017915388692993601 -0.098382106340426351 -0.76623605358731239 0.13953164087686765
                 -9.8382106340426354e-05 1.7915388692993594e-05 -9.8382106340426354e-05 1.7915388692993594e-05 -0.76623605358731239 0.13953164087686765 -0.017915388692993601 -0.098382106340426351
6.8083 -0.027696316155266704 -0.096088053739408805 -0.74500302984242794 0.21473886345025298 -9.6088053739408803e-05 2.7696316155266701e-05 -9.6088053739408803e-05 2.7696316155266701e-05
                 -0.74500302984242794 0.21473886345025298 -0.027696316155266704 -0.096088053739408805 -9.6088053739408803e-05 2.7696316155266701e-05 -9.6088053739408803e-05 2.7696316155266701e-05
                 -9.6088053739408803e-05 2.7696316155266701e-05 -9.6088053739408803e-05 2.7696316155266701e-05 -0.027696316155266704 -0.096088053739408805 -0.74500302984242794 0.21473886345025298
                 -9.6088053739408803e-05 2.7696316155266701e-05 -9.6088053739408803e-05 2.7696316155266701e-05 -0.74500302984242794 0.21473886345025298 -0.027696316155266704 -0.096088053739408805
7.0082500000000003 -0.037197706860674216 -0.092824191913031762 -0.71648792972057729 0.28712028006586604 -9.2824191913031762e-05 3.7197706860674211e-05 -9.2824191913031762e-05 3.7197706860674211e-05
                 -0.71648792972057729 0.28712028006586604 -0.037197706860674216 -0.092824191913031762 -9.2824191913031762e-05 3.7197706860674211e-05 -9.2824191913031762e-05 3.7197706860674211e-05
                 -9.2824191913031762e-05 3.7197706860674211e-05 -9.2824191913031762e-05 3.7197706860674211e-05 -0.037197706860674216 -0.092824191913031762 -0.71648792972057729 0.28712028006586604
                 -9.2824191913031762e-05 3.7197706860674211e-05 -9.2824191913031762e-05 3.7197706860674211e-05 -0.71648792972057729 0.28712028006586604 -0.037197706860674216 -0.092824191913031762
7.2081999999999997 -0.046323664014544276 -0.088623462763918318 -0.68103846507907173 0.35598018914409002 -8.8623462763918312e-05 4.6323664014544274e-05 -8.8623462763918312e-05 4.6323664014544274e-05
                 -0.68103846507907173 0.35598018914409002 -0.046323664014544276 -0.088623462763918318 -8.8623462763918312e-05 4.6323664014544274e-05 -8.8623462763918312e-05 4.6323664014544274e-05
                 -8.8623462763918312e-05 4.6323664014544274e-05 -8.8623462763918312e-05 4.6323664014544274e-05 -0.046323664014544276 -0.088623462763918318 -0.68103846507907173 0.35598018914409002
                 -8.8623462763918312e-05 4.6323664014544274e-05 -8.8623462763918312e-05 4.6323664014544274e-05 -0.68103846507907173 0.35598018914409002 -0.046323664014544276 -0.088623462763918318
7.40815 -0.054982080043733152 -0.083528263923444035 -0.63906804798960171 0.42066348463989234 -8.3528263923444044e-05 5.498208004373314e-05 -8.3528263923444044e-05 5.498208004373314e-05
                 -0.63906804798960171 0.42066348463989234 -0.054982080043733152 -0.083528263923444035 -8.3528263923444044e-05 5.498208004373314e-05 -8.3528263923444044e-05 5.498208004373314e-05
                 -8.3528263923444044e-05 5.498208004373314e-05 -8.3528263923444044e-05 5.498208004373314e-05 -0.054982080043733152 -0.083528263923444035 -0.63906804798960171 0.42066348463989234
                 -8.3528263923444044e-05 5.498208004373314e-05 -8.3528263923444044e-05 5.498208004373314e-05 -0.63906804798960171 0.42066348463989234 -0.054982080043733152 -0.083528263923444035
7.6081000000000003 -0.063085566231169982 -0.077590020835753531 -0.59105121582006814 0.48056180704682405 -7.7590020835753527e-05 6.308556623116998e-05 -7.7590020835753527e-05 6.308556623116998e-05
                 -0.59105121582006814 0.48056180704682405 -0.063085566231169982 -0.077590020835753531 -7.7590020835753527e-05 6.308556623116998e-05 -7.7590020835753527e-05 6.308556623116998e-05
                 -7.7590020835753527e-05 6.308556623116998e-05 -7.7590020835753527e-05 6.308556623116998e-05 -0.063085566231169982 -0.077590020835753531 -0.59105121582006814 0.48056180704682405
                 -7.7590020835753527e-05 6.308556623116998e-05 -7.7590020835753527e-05 6.308556623116998e-05 -0.59105121582006814 0.48056180704682405 -0.063085566231169982 -0.077590020835753531
7.8080499999999997 -0.070552334723356896 -0.070868667724766854 -0.53751848484382481 0.53511918990738894 -7.0868667724766863e-05 7.0552334723356886e-05 -7.0868667724766863e-05 7.0552334723356886e-05
                 -0.53751848484382481 0.53511918990738894 -0.070552334723356896 -0.070868667724766854 -7.0868667724766863e-05 7.0552334723356886e-05 -7.0868667724766863e-05 7.0552334723356886e-05
                 -7.0868667724766863e-05 7.0552334723356886e-05 -7.0868667724766863e-05 7.0552334723356886e-05 -0.070552334723356896 -0.070868667724766854 -0.53751848484382481 0.53511918990738894
                 -7.0868667724766863e-05 7.0552334723356886e-05 -7.0868667724766863e-05 7.0552334723356886e-05 -0.53751848484382481 0.53511918990738894 -0.070552334723356896 -0.070868667724766854
8.0079999999999991 -0.077307024008789069 -0.063432042682736542 -0.47905068723101402 0.58383714937929854 -6.3432042682736562e-05 7.7307024008789067e-05 -6.3432042682736562e-05 7.7307024008789067e-05
                 -0.47905068723101402 0.58383714937929854 -0.077307024008789069 -0.063432042682736542 -6.3432042682736562e-05 7.7307024008789067e-05 -6.3432042682736562e-05 7.7307024008789067e-05
                 -6.3432042682736562e-05 7.7307024008789067e-05 -6.3432042682736562e-05 7.7307024008789067e-05 -0.077307024008789069 -0.063432042682736542 -0.47905068723101402 0.58383714937929854
                 -6.3432042682736562e-05 7.7307024008789067e-05 -6.3432042682736562e-05 7.7307024008789067e-05 -0.47905068723101402 0.58383714937929854 -0.077307024008789069 -0.063432042682736542
8.2079500000000003 -0.083281459535807734 -0.055355202985678059 -0.41627285099905126 0.6262791702760504 -5.5355202985678065e-05 8.3281459535807726e-05 -5.5355202985678065e-05 8.3281459535807726e-05
                 -0.41627285099905126 0.6262791702760504 -0.083281459535807734 -0.055355202985678059 -5.5355202985678065e-05 8.3281459535807726e-05 -5.5355202985678065e-05 8.3281459535807726e-05
                 -5.5355202985678065e-05 8.3281459535807726e-05 -5.5355202985678065e-05 8.3281459535807726e-05 -0.083281459535807734 -0.055355202985678059 -0.41627285099905126 0.6262791702760504
                 -5.5355202985678065e-05 8.3281459535807726e-05 -5.5355202985678065e-05 8.3281459535807726e-05 -0.41627285099905126 0.6262791702760504 -0.083281459535807734 -0.055355202985678059
8.4078999999999997 -0.088415341793028068 -0.046719667546141923 -0.34984768660653581 0.66207454828884715 -4.6719667546141924e-05 8.8415341793028057e-05 -4.6719667546141924e-05 8.8415341793028057e-05
                 -0.34984768660653581 0.66207454828884715 -0.088415341793028068 -0.046719667546141923 -4.6719667546141924e-05 8.8415341793028057e-05 -4.6719667546141924e-05 8.8415341793028057e-05
                 -4.6719667546141924e-05 8.8415341793028057e-05 -4.6719667546141924e-05 8.8415341793028057e-05 -0.088415341793028068 -0.046719667546141923 -0.34984768660653581 0.66207454828884715
                 -4.6719667546141924e-05 8.8415341793028057e-05 -4.6719667546141924e-05 8.8415341793028057e-05 -0.34984768660653581 0.66207454828884715 -0.088415341793028068 -0.046719667546141923
8.6078499999999991 -0.092656854907599923 -0.037612594149193941 -0.2804687473292532 0.69092155474098915 -3.7612594149193947e-05 9.2656854907599914e-05 -3.7612594149193947e-05 9.2656854907599914e-05
                 -0.2804687473292532 0.69092155474098915 -0.092656854907599923 -0.037612594149193941 -3.7612594149193947e-05 9.2656854907599914e-05 -3.7612594149193947e-05 9.2656854907599914e-05
                 -3.7612594149193947e-05 9.2656854907599914e-05 -3.7612594149193947e-05 9.2656854907599914e-05 -0.092656854907599923 -0.037612594149193941 -0.2804687473292532 0.69092155474098915
                 -3.7612594149193947e-05 9.2656854907599914e-05 -3.7612594149193947e-05 9.2656854907599914e-05 -0.2804687473292532 0.69092155474098915 -0.092656854907599923 -0.037612594149193941
8.8078000000000003 -0.095963189618768166 -0.028125899775693321 -0.2088533333277115 0.71258989715805154 -2.8125899775693327e-05 9.5963189618768172e-05 -2.8125899775693327e-05 9.5963189618768172e-05
                 -0.2088533333277115 0.71258989715805154 -0.095963189618768166 -0.028125899775693321 -2.8125899775693327e-05 9.5963189618768172e-05 -2.8125899775693327e-05 9.5963189618768172e-05
                 -2.8125899775693327e-05 9.5963189618768172e-05 -2.8125899775693327e-05 9.5963189618768172e-05 -0.095963189618768166 -0.028125899775693321 -0.2088533333277115 0.71258989715805154
                 -2.8125899775693327e-05 9.5963189618768172e-05 -2.8125899775693327e-05 9.5963189618768172e-05 -0.2088533333277115 0.71258989715805154 -0.095963189618768166 -0.028125899775693321
9.0077499999999997 -0.098300975348399183 -0.018355332891381124 -0.13573521137927111 0.72692245608733863 -1.835533289138113e-05 9.8300975348399177e-05 -1.835533289138113e-05 9.8300975348399177e-05
                 -0.13573521137927111 0.72692245608733863 -0.098300975348399183 -0.018355332891381124 -1.835533289138113e-05 9.8300975348399177e-05 -1.835533289138113e-05 9.8300975348399177e-05
                 -1.835533289138113e-05 9.8300975348399177e-05 -1.835533289138113e-05 9.8300975348399177e-05 -0.098300975348399183 -0.018355332891381124 -0.13573521137927111 0.72692245608733863
                 -1.835533289138113e-05 9.8300975348399177e-05 -1.835533289138113e-05 9.8300975348399177e-05 -0.13573521137927111 0.72692245608733863 -0.098300975348399183 -0.018355332891381124
9.2077000000000009 -0.099646617007621036 -0.0083995070650897102 -0.061857223587794163 0.73383628589660221 -8.3995070650897172e-06 9.9646617007621035e-05 -8.3995070650897172e-06 9.9646617007621035e-05
                 -0.061857223587794163 0.73383628589660221 -0.099646617007621036 -0.0083995070650897102 -8.3995070650897172e-06 9.9646617007621035e-05 -8.3995070650897172e-06 9.9646617007621035e-05
                 -8.3995070650897172e-06 9.9646617007621035e-05 -8.3995070650897172e-06 9.9646617007621035e-05 -0.099646617007621036 -0.0083995070650897102 -0.061857223587794163 0.73383628589660221
                 -8.3995070650897172e-06 9.9646617007621035e-05 -8.3995070650897172e-06 9.9646617007621035e-05 -0.061857223587794163 0.73383628589660221 -0.099646617007621036 -0.0083995070650897102
9.4076500000000003 -0.099986533140213579 0.0016410943303092618 0.012036141009005383 0.73332287465182833 1.6410943303092556e-06 9.9986533140213578e-05 1.6410943303092556e-06 9.9986533140213578e-05
                 0.012036141009005383 0.73332287465182833 -0.099986533140213579 0.0016410943303092618 1.6410943303092556e-06 9.9986533140213578e-05 1.6410943303092556e-06 9.9986533140213578e-05
                 1.6410943303092556e-06 9.9986533140213578e-05 1.6410943303092556e-06 9.9986533140213578e-05 -0.099986533140213579 0.0016410943303092618 0.012036141009005383 0.73332287465182833
                 1.6410943303092556e-06 9.9986533140213578e-05 1.6410943303092556e-06 9.9986533140213578e-05 0.012036141009005383 0.73332287465182833 -0.099986533140213579 0.0016410943303092618
9.6075999999999997 -0.099317292999185819 0.011665132288743059 0.085206138141511539 0.72544766554391571 1.1665132288743054e-05 9.9317292999185825e-05 1.1665132288743054e-05 9.9317292999185825e-05
                 0.085206138141511539 0.72544766554391571 -0.099317292999185819 0.011665132288743059 1.1665132288743054e-05 9.9317292999185825e-05 1.1665132288743054e-05 9.9317292999185825e-05
                 1.1665132288743054e-05 9.9317292999185825e-05 1.1665132288743054e-05 9.9317292999185825e-05 -0.099317292999185819 0.011665132288743059 0.085206138141511539 0.72544766554391571
                 1.1665132288743054e-05 9.9317292999185825e-05 1.1665132288743054e-05 9.9317292999185825e-05 0.085206138141511539 0.72544766554391571 -0.099317292999185819 0.011665132288743059
9.8075500000000009 -0.097645651173037501 0.021571434977615229 0.15692705038235091 0.71034884963145561 2.1571434977615224e-05 9.7645651173037506e-05 2.1571434977615224e-05 9.7645651173037506e-05
                 0.15692705038235091 0.71034884963145561 -0.097645651173037501 0.021571434977615229 2.1571434977615224e-05 9.7645651173037506e-05 2.1571434977615224e-05 9.7645651173037506e-05
                 2.1571434977615224e-05 9.7645651173037506e-05 2.1571434977615224e-05 9.7645651173037506e-05 -0.097645651173037501 0.021571434977615229 0.15692705038235091 0.71034884963145561
                 2.1571434977615224e-05 9.7645651173037506e-05 2.1571434977615224e-05 9.7645651173037506e-05 0.15692705038235091 0.71034884963145561 -0.097645651173037501 0.021571434977615229
10.0075 -0.094988479412224616 0.031260018857214099 0.22649328822738402 0.68823544681992188 3.1260018857214092e-05 9.4988479412224619e-05 3.1260018857214092e-05 9.4988479412224619e-05
                 0.22649328822738402 0.68823544681992188 -0.094988479412224616 0.031260018857214099 3.1260018857214092e-05 9.4988479412224619e-05 3.1260018857214092e-05 9.4988479412224619e-05
                 3.1260018857214092e-05 9.4988479412224619e-05 3.1260018857214092e-05 9.4988479412224619e-05 -0.094988479412224616 0.031260018857214099 0.22649328822738402 0.68823544681992188
                 3.1260018857214092e-05 9.4988479412224619e-05 3.1260018857214092e-05 9.4988479412224619e-05 0.22649328822738402 0.68823544681992188 -0.094988479412224616 0.031260018857214099
10.20745 -0.091372596343899243 0.040633097806773877 0.29322624108589285 0.65938469893657936 4.0633097806773865e-05 9.1372596343899248e-05 4.0633097806773865e-05 9.1372596343899248e-05
                 0.29322624108589285 0.65938469893657936 -0.091372596343899243 0.040633097806773877 4.0633097806773865e-05 9.1372596343899248e-05 4.0633097806773865e-05 9.1372596343899248e-05
                 4.0633097806773865e-05 9.1372596343899248e-05 4.0633097806773865e-05 9.1372596343899248e-05 -0.091372596343899243 0.040633097806773877 0.29322624108589285 0.65938469893657936
                 4.0633097806773865e-05 9.1372596343899248e-05 4.0633097806773865e-05 9.1372596343899248e-05 0.29322624108589285 0.65938469893657936 -0.091372596343899243 0.040633097806773877
10.407400000000001 -0.086834496793599031 0.049596070072158341 0.35648081201924398 0.62413880541800593 4.9596070072158339e-05 8.6834496793599032e-05 4.9596070072158339e-05 8.6834496793599032e-05
                 0.35648081201924398 0.62413880541800593 -0.086834496793599031 0.049596070072158341 4.9596070072158339e-05 8.6834496793599032e-05 4.9596070072158339e-05 8.6834496793599032e-05
                 4.9596070072158339e-05 8.6834496793599032e-05 4.9596070072158339e-05 8.6834496793599032e-05 -0.086834496793599031 0.049596070072158341 0.35648081201924398 0.62413880541800593
                 4.9596070072158339e-05 8.6834496793599032e-05 4.9596070072158339e-05 8.6834496793599032e-05 0.35648081201924398 0.62413880541800593 -0.086834496793599031 0.049596070072158341
10.60735 -0.081419983445822436 0.058058473073979502 0.41565157364024485 0.58290103843923102 5.8058473073979491e-05 8.1419983445822432e-05 5.8058473073979491e-05 8.1419983445822432e-05
                 0.41565157364024485 0.58290103843923102 -0.081419983445822436 0.058058473073979502 5.8058473073979491e-05 8.1419983445822432e-05 5.8058473073979491e-05 8.1419983445822432e-05
                 5.8058473073979491e-05 8.1419983445822432e-05 5.8058473073979491e-05 8.1419983445822432e-05 -0.081419983445822436 0.058058473073979502 0.41565157364024485 0.58290103843923102
                 5.8058473073979491e-05 8.1419983445822432e-05 5.8058473073979491e-05 8.1419983445822432e-05 0.41565157364024485 0.58290103843923102 -0.081419983445822436 0.058058473073979502
10.8073 -0.075183704561108969 0.065934896439350563 0.4701784867551112 0.53613128021974876 6.5934896439350562e-05 7.5183704561108974e-05 6.5934896439350562e-05 7.5183704561108974e-05
                 0.4701784867551112 0.53613128021974876 -0.075183704561108969 0.065934896439350563 6.5934896439350562e-05 7.5183704561108974e-05 6.5934896439350562e-05 7.5183704561108974e-05
                 6.5934896439350562e-05 7.5183704561108974e-05 6.5934896439350562e-05 7.5183704561108974e-05 -0.075183704561108969 0.065934896439350563 0.4701784867551112 0.53613128021974876
                 6.5934896439350562e-05 7.5183704561108974e-05 6.5934896439350562e-05 7.5183704561108974e-05 0.4701784867551112 0.53613128021974876 -0.075183704561108969 0.065934896439350563
11.007250000000001 -0.068188602415412455 0.073145844042110872 0.51955212805128792 0.48434103068623702 7.3145844042110881e-05 6.8188602415412467e-05 7.3145844042110881e-05 6.8188602415412467e-05
                 0.51955212805128792 0.48434103068623702 -0.068188602415412455 0.073145844042110872 7.3145844042110881e-05 6.8188602415412467e-05 7.3145844042110881e-05 6.8188602415412467e-05
                 7.3145844042110881e-05 6.8188602415412467e-05 7.3145844042110881e-05 6.8188602415412467e-05 -0.068188602415412455 0.073145844042110872 0.51955212805128792 0.48434103068623702
                 7.3145844042110881e-05 6.8188602415412467e-05 7.3145844042110881e-05 6.8188602415412467e-05 0.51955212805128792 0.48434103068623702 -0.068188602415412455 0.073145844042110872
11.2072 -0.060505278028622447 0.079618536351022548 0.56331837835731646 0.42808793860356409 7.9618536351022537e-05 6.0505278028622461e-05 7.9618536351022537e-05 6.0505278028622461e-05
                 0.56331837835731646 0.42808793860356409 -0.060505278028622447 0.079618536351022548 7.9618536351022537e-05 6.0505278028622461e-05 7.9618536351022537e-05 6.0505278028622461e-05
                 7.9618536351022537e-05 6.0505278028622461e-05 7.9618536351022537e-05 6.0505278028622461e-05 -0.060505278028622447 0.079618536351022548 0.56331837835731646 0.42808793860356409
                 7.9618536351022537e-05 6.0505278028622461e-05 7.9618536351022537e-05 6.0505278028622461e-05 0.56331837835731646 0.42808793860356409 -0.060505278028622447 0.079618536351022548
11.40715 -0.052211278593982974 0.085287644987896677 0.60108252867040279 0.36796991365912163 8.5287644987896681e-05 5.2211278593982971e-05 8.5287644987896681e-05 5.2211278593982971e-05
                 0.60108252867040279 0.36796991365912163 -0.052211278593982974 0.085287644987896677 8.5287644987896681e-05 5.2211278593982971e-05 8.5287644987896681e-05 5.2211278593982971e-05
                 8.5287644987896681e-05 5.2211278593982971e-05 8.5287644987896681e-05 5.2211278593982971e-05 -0.052211278593982974 0.085287644987896677 0.60108252867040279 0.36796991365912163
                 8.5287644987896681e-05 5.2211278593982971e-05 8.5287644987896681e-05 5.2211278593982971e-05 0.60108252867040279 0.36796991365912163 -0.052211278593982974 0.085287644987896677
11.607100000000001 -0.043390314800323362 0.090095952081815756 0.63251276720458394 0.30461888076067972 9.0095952081815754e-05 4.3390314800323365e-05 9.0095952081815754e-05 4.3390314800323365e-05
                 0.63251276720458394 0.30461888076067972 -0.043390314800323362 0.090095952081815756 9.0095952081815754e-05 4.3390314800323365e-05 9.0095952081815754e-05 4.3390314800323365e-05
                 9.0095952081815754e-05 4.3390314800323365e-05 9.0095952081815754e-05 4.3390314800323365e-05 -0.043390314800323362 0.090095952081815756 0.63251276720458394 0.30461888076067972
                 9.0095952081815754e-05 4.3390314800323365e-05 9.0095952081815754e-05 4.3390314800323365e-05 0.63251276720458394 0.30461888076067972 -0.043390314800323362 0.090095952081815756
11.80705 -0.034131415946612273 0.093994927764637082 0.65734301709472398 0.2386942409513933 9.3994927764637069e-05 3.4131415946612279e-05 9.3994927764637069e-05 3.4131415946612279e-05
                 0.65734301709472398 0.2386942409513933 -0.034131415946612273 0.093994927764637082 9.3994927764637069e-05 3.4131415946612279e-05 9.3994927764637069e-05 3.4131415946612279e-05
                 9.3994927764637069e-05 3.4131415946612279e-05 9.3994927764637069e-05 3.4131415946612279e-05 -0.034131415946612273 0.093994927764637082 0.65734301709472398 0.2386942409513933
                 9.3994927764637069e-05 3.4131415946612279e-05 9.3994927764637069e-05 3.4131415946612279e-05 0.65734301709472398 0.2386942409513933 -0.034131415946612273 0.093994927764637082
12.007 -0.024528031376192055 0.096945219979164207 0.67537510103391152 0.17087610582985943 9.6945219979164199e-05 2.4528031376192063e-05 9.6945219979164199e-05 2.4528031376192063e-05
                 0.67537510103391152 0.17087610582985943 -0.024528031376192055 0.096945219979164207 9.6945219979164199e-05 2.4528031376192063e-05 9.6945219979164199e-05 2.4528031376192063e-05
                 9.6945219979164199e-05 2.4528031376192063e-05 9.6945219979164199e-05 2.4528031376192063e-05 -0.024528031376192055 0.096945219979164207 0.67537510103391152 0.17087610582985943
                 9.6945219979164199e-05 2.4528031376192063e-05 9.6945219979164199e-05 2.4528031376192063e-05 0.67537510103391152 0.17087610582985943 -0.024528031376192055 0.096945219979164207
12.206950000000001 -0.01467708729985198 0.098917051656387964 0.68648021595648367 0.10185837416802838 9.8917051656387963e-05 1.4677087299851987e-05 9.8917051656387963e-05 1.4677087299851987e-05
                 0.68648021595648367 0.10185837416802838 -0.01467708729985198 0.098917051656387964 9.8917051656387963e-05 1.4677087299851987e-05 9.8917051656387963e-05 1.4677087299851987e-05
                 9.8917051656387963e-05 1.4677087299851987e-05 9.8917051656387963e-05 1.4677087299851987e-05 -0.01467708729985198 0.098917051656387964 0.68648021595648367 0.10185837416802838
                 9.8917051656387963e-05 1.4677087299851987e-05 9.8917051656387963e-05 1.4677087299851987e-05 0.68648021595648367 0.10185837416802838 -0.01467708729985198 0.098917051656387964
12.4069 -0.004678008527148691 0.099890521253119535 0.69059970783705704 0.032341720531438925 9.9890521253119533e-05 4.6780085271486975e-06 9.9890521253119533e-05 4.6780085271486975e-06
                 0.69059970783705704 0.032341720531438925 -0.004678008527148691 0.099890521253119535 9.9890521253119533e-05 4.6780085271486975e-06 9.9890521253119533e-05 4.6780085271486975e-06
                 9.9890521253119533e-05 4.6780085271486975e-06 9.9890521253119533e-05 4.6780085271486975e-06 -0.004678008527148691 0.099890521253119535 0.69059970783705704 0.032341720531438925
                 9.9890521253119533e-05 4.6780085271486975e-06 9.9890521253119533e-05 4.6780085271486975e-06 0.69059970783705704 0.032341720531438925 -0.004678008527148691 0.099890521253119535
12.60685 0.0053682850204342554 0.099855803616712147 0.68774514368769912 -0.036973433881785624 9.9855803616712141e-05 -5.3682850204342494e-06 9.9855803616712141e-05 -5.3682850204342494e-06
                 0.68774514368769912 -0.036973433881785624 0.0053682850204342554 0.099855803616712147 9.9855803616712141e-05 -5.3682850204342494e-06 9.9855803616712141e-05 -5.3682850204342494e-06
                 9.9855803616712141e-05 -5.3682850204342494e-06 9.9855803616712141e-05 -5.3682850204342494e-06 0.0053682850204342554 0.099855803616712147 0.68774514368769912 -0.036973433881785624
                 9.9855803616712141e-05 -5.3682850204342494e-06 9.9855803616712141e-05 -5.3682850204342494e-06 0.68774514368769912 -0.036973433881785624 0.0053682850204342554 0.099855803616712147
12.806800000000001 0.015360396886376488 0.098813249149559884 0.67799768483090206 -0.1053938982543156 9.8813249149559888e-05 -1.5360396886376481e-05 9.8813249149559888e-05 -1.5360396886376481e-05
                 0.67799768483090206 -0.1053938982543156 0.015360396886376488 0.098813249149559884 9.8813249149559888e-05 -1.5360396886376481e-05 9.8813249149559888e-05 -1.5360396886376481e-05
                 9.8813249149559888e-05 -1.5360396886376481e-05 9.8813249149559888e-05 -1.5360396886376481e-05 0.015360396886376488 0.098813249149559884 0.67799768483090206 -0.1053938982543156
                 9.8813249149559888e-05 -1.5360396886376481e-05 9.8813249149559888e-05 -1.5360396886376481e-05 0.67799768483090206 -0.1053938982543156 0.015360396886376488 0.098813249149559884
13.00675 0.025197477465640963 0.096773380272513559 0.66150677243597433 -0.17224056806620222 9.6773380272513555e-05 -2.5197477465640958e-05 9.6773380272513555e-05 -2.5197477465640958e-05
                 0.66150677243597433 -0.17224056806620222 0.025197477465640963 0.096773380272513559 9.6773380272513555e-05 -2.5197477465640958e-05 9.6773380272513555e-05 -2.5197477465640958e-05
                 9.6773380272513555e-05 -2.5197477465640958e-05 9.6773380272513555e-05 -2.5197477465640958e-05 0.025197477465640963 0.096773380272513559 0.66150677243597433 -0.17224056806620222
                 9.6773380272513555e-05 -2.5197477465640958e-05 9.6773380272513555e-05 -2.5197477465640958e-05 0.66150677243597433 -0.17224056806620222 0.025197477465640963 0.096773380272513559
13.2067 0.034780241871864501 0.093756785222908562 0.63848814306285928 -0.23685509262339613 9.375678522290856e-05 -3.4780241871864492e-05 9.375678522290856e-05 -3.4780241871864492e-05
                 0.63848814306285928 -0.23685509262339613 0.034780241871864501 0.093756785222908562 9.375678522290856e-05 -3.4780241871864492e-05 9.375678522290856e-05 -3.4780241871864492e-05
                 9.375678522290856e-05 -3.4780241871864492e-05 9.375678522290856e-05 -3.4780241871864492e-05 0.034780241871864501 0.093756785222908562 0.63848814306285928 -0.23685509262339613
                 9.375678522290856e-05 -3.4780241871864492e-05 9.375678522290856e-05 -3.4780241871864492e-05 0.63848814306285928 -0.23685509262339613 0.034780241871864501 0.093756785222908562
13.406650000000001 0.0440119720119653 0.089793910259092655 0.60922119849408973 -0.29860628922218818 8.9793910259092655e-05 -4.4011972011965297e-05 8.9793910259092655e-05 -4.4011972011965297e-05
                 0.60922119849408973 -0.29860628922218818 0.0440119720119653 0.089793910259092655 8.9793910259092655e-05 -4.4011972011965297e-05 8.9793910259092655e-05 -4.4011972011965297e-05
                 8.9793910259092655e-05 -4.4011972011965297e-05 8.9793910259092655e-05 -4.4011972011965297e-05 0.0440119720119653 0.089793910259092655 0.60922119849408973 -0.29860628922218818
                 8.9793910259092655e-05 -4.4011972011965297e-05 8.9793910259092655e-05 -4.4011972011965297e-05 0.60922119849408973 -0.29860628922218818 0.0440119720119653 0.089793910259092655
13.6066 0.05279949275430651 0.084924752368717188 0.57404576038912836 -0.35689624191910951 8.4924752368717188e-05 -5.2799492754306515e-05 8.4924752368717188e-05 -5.2799492754306515e-05
                 0.57404576038912836 -0.35689624191910951 0.05279949275430651 0.084924752368717188 8.4924752368717188e-05 -5.2799492754306515e-05 8.4924752368717188e-05 -5.2799492754306515e-05
                 8.4924752368717188e-05 -5.2799492754306515e-05 8.4924752368717188e-05 -5.2799492754306515e-05 0.05279949275430651 0.084924752368717188 0.57404576038912836 -0.35689624191910951
                 8.4924752368717188e-05 -5.2799492754306515e-05 8.4924752368717188e-05 -5.2799492754306515e-05 0.57404576038912836 -0.35689624191910951 0.05279949275430651 0.084924752368717188
13.80655 0.061054112338026191 0.079198455582262961 0.53335824620540206 -0.41116602641845096 7.9198455582262965e-05 -6.1054112338026199e-05 7.9198455582262965e-05 -6.1054112338026199e-05
                 0.53335824620540206 -0.41116602641845096 0.061054112338026191 0.079198455582262961 7.9198455582262965e-05 -6.1054112338026199e-05 7.9198455582262965e-05 -6.1054112338026199e-05
                 7.9198455582262965e-05 -6.1054112338026199e-05 7.9198455582262965e-05 -6.1054112338026199e-05 0.061054112338026191 0.079198455582262961 0.53335824620540206 -0.41116602641845096
                 7.9198455582262965e-05 -6.1054112338026199e-05 7.9198455582262965e-05 -6.1054112338026199e-05 0.53335824620540206 -0.41116602641845096 0.061054112338026191 0.079198455582262961
14.006500000000001 0.068692517532055727 0.072672814966177127 0.48760730834040128 -0.4609010066903354 7.2672814966177128e-05 -6.8692517532055716e-05 7.2672814966177128e-05 -6.8692517532055716e-05
                 0.48760730834040128 -0.4609010066903354 0.068692517532055727 0.072672814966177127 7.2672814966177128e-05 -6.8692517532055716e-05 7.2672814966177128e-05 -6.8692517532055716e-05
                 7.2672814966177128e-05 -6.8692517532055716e-05 7.2672814966177128e-05 -6.8692517532055716e-05 0.068692517532055727 0.072672814966177127 0.48760730834040128 -0.4609010066903354
                 7.2672814966177128e-05 -6.8692517532055716e-05 7.2672814966177128e-05 -6.8692517532055716e-05 0.48760730834040128 -0.4609010066903354 0.068692517532055727 0.072672814966177127
14.20645 0.075637614509057177 0.065413693301779444 0.43728898350706991 -0.50563565354695339 6.5413693301779449e-05 -7.5637614509057173e-05 6.5413693301779449e-05 -7.5637614509057173e-05
                 0.43728898350706991 -0.50563565354695339 0.075637614509057177 0.065413693301779444 6.5413693301779449e-05 -7.5637614509057173e-05 6.5413693301779449e-05 -7.5637614509057173e-05
                 6.5413693301779449e-05 -7.5637614509057173e-05 6.5413693301779449e-05 -7.5637614509057173e-05 0.075637614509057177 0.065413693301779444 0.43728898350706991 -0.50563565354695339
                 6.5413693301779449e-05 -7.5637614509057173e-05 6.5413693301779449e-05 -7.5637614509057173e-05 0.43728898350706991 -0.50563565354695339 0.075637614509057177 0.065413693301779444
14.4064 0.081819306947404982 0.057494356337351296 0.38294140391297504 -0.54495784048409313 5.7494356337351298e-05 -8.1819306947404977e-05 5.7494356337351298e-05 -8.1819306947404977e-05
                 0.38294140391297504 -0.54495784048409313 0.081819306947404982 0.057494356337351296 5.7494356337351298e-05 -8.1819306947404977e-05 5.7494356337351298e-05 -8.1819306947404977e-05
                 5.7494356337351298e-05 -8.1819306947404977e-05 5.7494356337351298e-05 -8.1819306947404977e-05 0.081819306947404982 0.057494356337351296 0.38294140391297504 -0.54495784048409313
                 5.7494356337351298e-05 -8.1819306947404977e-05 5.7494356337351298e-05 -8.1819306947404977e-05 0.38294140391297504 -0.54495784048409313 0.081819306947404982 0.057494356337351296
14.606350000000001 0.087175203507887419 0.048994733322658413 0.32513912583029714 -0.57851257758606045 4.8994733322658415e-05 -8.7175203507887413e-05 4.8994733322658415e-05 -8.7175203507887413e-05
                 0.32513912583029714 -0.57851257758606045 0.087175203507887419 0.048994733322658413 4.8994733322658415e-05 -8.7175203507887413e-05 4.8994733322658415e-05 -8.7175203507887413e-05
                 4.8994733322658415e-05 -8.7175203507887413e-05 4.8994733322658415e-05 -8.7175203507887413e-05 0.087175203507887419 0.048994733322658413 0.32513912583029714 -0.57851257758606045
                 4.8994733322658415e-05 -8.7175203507887413e-05 4.8994733322658415e-05 -8.7175203507887413e-05 0.32513912583029714 -0.57851257758606045 0.087175203507887419 0.048994733322658413
14.8063 0.091651247544623032 0.040000610289272223 0.2644871345819545 -0.60600515013741729 4.0000610289272226e-05 -9.1651247544623031e-05 4.0000610289272226e-05 -9.1651247544623031e-05
                 0.2644871345819545 -0.60600515013741729 0.091651247544623032 0.040000610289272223 4.0000610289272226e-05 -9.1651247544623031e-05 4.0000610289272226e-05 -9.1651247544623031e-05
                 4.0000610289272226e-05 -9.1651247544623031e-05 4.0000610289272226e-05 -9.1651247544623031e-05 0.091651247544623032 0.040000610289272223 0.2644871345819545 -0.60600515013741729
                 4.0000610289272226e-05 -9.1651247544623031e-05 4.0000610289272226e-05 -9.1651247544623031e-05 0.2644871345819545 -0.60600515013741729 0.091651247544623032 0.040000610289272223
15.00625 0.095202262694567621 0.030602764218850199 0.20161458779874047 -0.62720363472426921 3.0602764218850206e-05 -9.5202262694567624e-05 3.0602764218850206e-05 -9.5202262694567624e-05
                 0.20161458779874047 -0.62720363472426921 0.095202262694567621 0.030602764218850199 3.0602764218850206e-05 -9.5202262694567624e-05 3.0602764218850206e-05 -9.5202262694567624e-05
                 3.0602764218850206e-05 -9.5202262694567624e-05 3.0602764218850206e-05 -9.5202262694567624e-05 0.095202262694567621 0.030602764218850199 0.20161458779874047 -0.62720363472426921
                 3.0602764218850206e-05 -9.5202262694567624e-05 3.0602764218850206e-05 -9.5202262694567624e-05 0.20161458779874047 -0.62720363472426921 0.095202262694567621 0.030602764218850199
15.206200000000001 0.097792408839019865 0.020896046838145974 0.13716836099881854 -0.641940771978328 2.089604683814598e-05 -9.7792408839019864e-05 2.089604683814598e-05 -9.7792408839019864e-05
                 0.13716836099881854 -0.641940771978328 0.097792408839019865 0.020896046838145974 2.089604683814598e-05 -9.7792408839019864e-05 2.089604683814598e-05 -9.7792408839019864e-05
                 2.089604683814598e-05 -9.7792408839019864e-05 2.089604683814598e-05 -9.7792408839019864e-05 0.097792408839019865 0.020896046838145974 0.13716836099881854 -0.641940771978328
                 2.089604683814598e-05 -9.7792408839019864e-05 2.089604683814598e-05 -9.7792408839019864e-05 0.13716836099881854 -0.641940771978328 0.097792408839019865 0.020896046838145974
15.40615 0.099395543835141265 0.010978427287936597 0.071806461086509468 -0.65011518165385263 1.0978427287936603e-05 -9.9395543835141274e-05 1.0978427287936603e-05 -9.9395543835141274e-05
                 0.071806461086509468 -0.65011518165385263 0.099395543835141265 0.010978427287936597 1.0978427287936603e-05 -9.9395543835141274e-05 1.0978427287936603e-05 -9.9395543835141274e-05
                 1.0978427287936603e-05 -9.9395543835141274e-05 1.0978427287936603e-05 -9.9395543835141274e-05 0.099395543835141265 0.010978427287936597 0.071806461086509468 -0.65011518165385263
                 1.0978427287936603e-05 -9.9395543835141274e-05 1.0978427287936603e-05 -9.9395543835141274e-05 0.071806461086509468 -0.65011518165385263 0.099395543835141265 0.010978427287936597
15.6061 0.099995487366563385 0.00095000332813177386 0.0061913742506561429 -0.65169191236482937 9.5000332813177992e-07 -9.9995487366563387e-05 9.5000332813177992e-07 -9.9995487366563387e-05
                 0.0061913742506561429 -0.65169191236482937 0.099995487366563385 0.00095000332813177386 9.5000332813177992e-07 -9.9995487366563387e-05 9.5000332813177992e-07 -9.9995487366563387e-05
                 9.5000332813177992e-07 -9.9995487366563387e-05 9.5000332813177992e-07 -9.9995487366563387e-05 0.099995487366563385 0.00095000332813177386 0.0061913742506561429 -0.65169191236482937
                 9.5000332813177992e-07 -9.9995487366563387e-05 9.5000332813177992e-07 -9.9995487366563387e-05 0.0061913742506561429 -0.65169191236482937 0.099995487366563385 0.00095000332813177386
15.806050000000001 0.099586184250057677 -0.0090880089411027667 -0.059016585040546493 -0.64670232498075675 -9.0880089411027614e-06 -9.958618425005768e-05 -9.0880089411027614e-06 -9.958618425005768e-05
                 -0.059016585040546493 -0.64670232498075675 0.099586184250057677 -0.0090880089411027667 -9.0880089411027614e-06 -9.958618425005768e-05 -9.0880089411027614e-06 -9.958618425005768e-05
                 -9.0880089411027614e-06 -9.958618425005768e-05 -9.0880089411027614e-06 -9.958618425005768e-05 0.099586184250057677 -0.0090880089411027667 -0.059016585040546493 -0.64670232498075675
                 -9.0880089411027614e-06 -9.958618425005768e-05 -9.0880089411027614e-06 -9.958618425005768e-05 -0.059016585040546493 -0.64670232498075675 0.099586184250057677 -0.0090880089411027667
16.006 0.098171765550027115 -0.019034296645542466 -0.12316585769960738 -0.63524331531764167 -1.9034296645542462e-05 -9.8171765550027118e-05 -1.9034296645542462e-05 -9.8171765550027118e-05
                 -0.12316585769960738 -0.63524331531764167 0.098171765550027115 -0.019034296645542466 -1.9034296645542462e-05 -9.8171765550027118e-05 -1.9034296645542462e-05 -9.8171765550027118e-05
                 -1.9034296645542462e-05 -9.8171765550027118e-05 -1.9034296645542462e-05 -9.8171765550027118e-05 0.098171765550027115 -0.019034296645542466 -0.12316585769960738 -0.63524331531764167
                 -1.9034296645542462e-05 -9.8171765550027118e-05 -1.9034296645542462e-05 -9.8171765550027118e-05 -0.12316585769960738 -0.63524331531764167 0.098171765550027115 -0.019034296645542466
16.205950000000001 0.095766506883995739 -0.028788472679834837 -0.18562009119041259 -0.61747588830046096 -2.8788472679834831e-05 -9.5766506883995746e-05 -2.8788472679834831e-05 -9.5766506883995746e-05
                 -0.18562009119041259 -0.61747588830046096 0.095766506883995739 -0.028788472679834837 -2.8788472679834831e-05 -9.5766506883995746e-05 -2.8788472679834831e-05 -9.5766506883995746e-05
                 -2.8788472679834831e-05 -9.5766506883995746e-05 -2.8788472679834831e-05 -9.5766506883995746e-05 0.095766506883995739 -0.028788472679834837 -0.18562009119041259 -0.61747588830046096
                 -2.8788472679834831e-05 -9.5766506883995746e-05 -2.8788472679834831e-05 -9.5766506883995746e-05 -0.18562009119041259 -0.61747588830046096 0.095766506883995739 -0.028788472679834837
16.405899999999999 0.092394684339915253 -0.038252088906717496 -0.24576439481067541 -0.59362310214998493 -3.8252088906717491e-05 -9.2394684339915258e-05 -3.8252088906717491e-05 -9.2394684339915258e-05
                 -0.24576439481067541 -0.59362310214998493 0.092394684339915253 -0.038252088906717496 -3.8252088906717491e-05 -9.2394684339915258e-05 -3.8252088906717491e-05 -9.2394684339915258e-05
                 -3.8252088906717491e-05 -9.2394684339915258e-05 -3.8252088906717491e-05 -9.2394684339915258e-05 0.092394684339915253 -0.038252088906717496 -0.24576439481067541 -0.59362310214998493
                 -3.8252088906717491e-05 -9.2394684339915258e-05 -3.8252088906717491e-05 -9.2394684339915258e-05 -0.24576439481067541 -0.59362310214998493 0.092394684339915253 -0.038252088906717496
16.60585 0.088090329459504624 -0.04732962978638152 -0.30301133805244268 -0.56396740729811046 -4.7329629786381513e-05 -8.8090329459504632e-05 -4.7329629786381513e-05 -8.8090329459504632e-05
                 -0.30301133805244268 -0.56396740729811046 0.088090329459504624 -0.04732962978638152 -4.7329629786381513e-05 -8.8090329459504632e-05 -4.7329629786381513e-05 -8.8090329459504632e-05
                 -4.7329629786381513e-05 -8.8090329459504632e-05 -4.7329629786381513e-05 -8.8090329459504632e-05 0.088090329459504624 -0.04732962978638152 -0.30301133805244268 -0.56396740729811046
                 -4.7329629786381513e-05 -8.8090329459504632e-05 -4.7329629786381513e-05 -8.8090329459504632e-05 -0.30301133805244268 -0.56396740729811046 0.088090329459504624 -0.04732962978638152
16.805800000000001 0.082896885760556135 -0.055929476407358826 -0.35680663396435452 -0.5288474106018981 -5.5929476407358827e-05 -8.289688576055613e-05 -5.5929476407358827e-05 -8.289688576055613e-05
                 -0.35680663396435452 -0.5288474106018981 0.082896885760556135 -0.055929476407358826 -5.5929476407358827e-05 -8.289688576055613e-05 -5.5929476407358827e-05 -8.289688576055613e-05
                 -5.5929476407358827e-05 -8.289688576055613e-05 -5.5929476407358827e-05 -8.289688576055613e-05 0.082896885760556135 -0.055929476407358826 -0.35680663396435452 -0.5288474106018981
                 -5.5929476407358827e-05 -8.289688576055613e-05 -5.5929476407358827e-05 -8.289688576055613e-05 -0.35680663396435452 -0.5288474106018981 0.082896885760556135 -0.055929476407358826
17.005749999999999 0.076866770264901407 -0.063964831189043794 -0.40663445295587125 -0.48865410095081452 -6.3964831189043794e-05 -7.6866770264901415e-05 -6.3964831189043794e-05 -7.6866770264901415e-05
                 -0.40663445295587125 -0.48865410095081452 0.076866770264901407 -0.063964831189043794 -6.3964831189043794e-05 -7.6866770264901415e-05 -6.3964831189043794e-05 -7.6866770264901415e-05
                 -6.3964831189043794e-05 -7.6866770264901415e-05 -6.3964831189043794e-05 -7.6866770264901415e-05 0.076866770264901407 -0.063964831189043794 -0.40663445295587125 -0.48865410095081452
                 -6.3964831189043794e-05 -7.6866770264901415e-05 -6.3964831189043794e-05 -7.6866770264901415e-05 -0.40663445295587125 -0.48865410095081452 0.076866770264901407 -0.063964831189043794
17.2057 0.070060844457502131 -0.071354593922898155 -0.45202231652087804 -0.44382657749140686 -7.1354593922898162e-05 -7.0060844457502124e-05 -7.1354593922898162e-05 -7.0060844457502124e-05
                 -0.45202231652087804 -0.44382657749140686 0.070060844457502131 -0.071354593922898155 -7.1354593922898162e-05 -7.0060844457502124e-05 -7.1354593922898162e-05 -7.0060844457502124e-05
                 -7.1354593922898162e-05 -7.0060844457502124e-05 -7.1354593922898162e-05 -7.0060844457502124e-05 0.070060844457502131 -0.071354593922898155 -0.45202231652087804 -0.44382657749140686
                 -7.1354593922898162e-05 -7.0060844457502124e-05 -7.1354593922898162e-05 -7.0060844457502124e-05 -0.45202231652087804 -0.44382657749140686 0.070060844457502131 -0.071354593922898155
17.405650000000001 0.06254780001623364 -0.078024180310524535 -0.49254552487249764 -0.39484732638018161 -7.8024180310524524e-05 -6.2547800016233648e-05 -7.8024180310524524e-05 -6.2547800016233648e-05
                 -0.49254552487249764 -0.39484732638018161 0.06254780001623364 -0.078024180310524535 -7.8024180310524524e-05 -6.2547800016233648e-05 -7.8024180310524524e-05 -6.2547800016233648e-05
                 -7.8024180310524524e-05 -6.2547800016233648e-05 -7.8024180310524524e-05 -6.2547800016233648e-05 0.06254780001623364 -0.078024180310524535 -0.49254552487249764 -0.39484732638018161
                 -7.8024180310524524e-05 -6.2547800016233648e-05 -7.8024180310524524e-05 -6.2547800016233648e-05 -0.49254552487249764 -0.39484732638018161 0.06254780001623364 -0.078024180310524535
17.605599999999999 0.054403465512142396 -0.083906274737168107 -0.52783107742466084 -0.34223709617499198 -8.3906274737168094e-05 -5.4403465512142391e-05 -8.3906274737168094e-05 -5.4403465512142391e-05
                 -0.52783107742466084 -0.34223709617499198 0.054403465512142396 -0.083906274737168107 -8.3906274737168094e-05 -5.4403465512142391e-05 -8.3906274737168094e-05 -5.4403465512142391e-05
                 -8.3906274737168094e-05 -5.4403465512142391e-05 -8.3906274737168094e-05 -5.4403465512142391e-05 0.054403465512142396 -0.083906274737168107 -0.52783107742466084 -0.34223709617499198
                 -8.3906274737168094e-05 -5.4403465512142391e-05 -8.3906274737168094e-05 -5.4403465512142391e-05 -0.52783107742466084 -0.34223709617499198 0.054403465512142396 -0.083906274737168107
17.80555 0.04571004107759747 -0.088941509682961606 -0.55756105037710701 -0.28654942564898134 -8.8941509682961595e-05 -4.5710041077597474e-05 -8.8941509682961595e-05 -4.5710041077597474e-05
                 -0.55756105037710701 -0.28654942564898134 0.04571004107759747 -0.088941509682961606 -8.8941509682961595e-05 -4.5710041077597474e-05 -8.8941509682961595e-05 -4.5710041077597474e-05
                 -8.8941509682961595e-05 -4.5710041077597474e-05 -8.8941509682961595e-05 -4.5710041077597474e-05 0.04571004107759747 -0.088941509682961606 -0.55756105037710701 -0.28654942564898134
                 -8.8941509682961595e-05 -4.5710041077597474e-05 -8.8941509682961595e-05 -4.5710041077597474e-05 -0.55756105037710701 -0.28654942564898134 0.04571004107759747 -0.088941509682961606
18.005500000000001 0.03655526876677178 -0.093079064914668552 -0.58147540130371433 -0.22836488092580717 -9.3079064914668551e-05 -3.6555268766771783e-05 -9.3079064914668551e-05 -3.6555268766771783e-05
                 -0.58147540130371433 -0.22836488092580717 0.03655526876677178 -0.093079064914668552 -9.3079064914668551e-05 -3.6555268766771783e-05 -9.3079064914668551e-05 -3.6555268766771783e-05
                 -9.3079064914668551e-05 -3.6555268766771783e-05 -9.3079064914668551e-05 -3.6555268766771783e-05 0.03655526876677178 -0.093079064914668552 -0.58147540130371433 -0.22836488092580717
                 -9.3079064914668551e-05 -3.6555268766771783e-05 -9.3079064914668551e-05 -3.6555268766771783e-05 -0.58147540130371433 -0.22836488092580717 0.03655526876677178 -0.093079064914668552
18.205449999999999 0.027031546981939093 -0.096277180410329954 -0.59937417655118119 -0.16828506136295135 -9.6277180410329945e-05 -2.7031546981939098e-05 -9.6277180410329945e-05 -2.7031546981939098e-05
                 -0.59937417655118119 -0.16828506136295135 0.027031546981939093 -0.096277180410329954 -9.6277180410329945e-05 -2.7031546981939098e-05 -9.6277180410329945e-05 -2.7031546981939098e-05
                 -9.6277180410329945e-05 -2.7031546981939098e-05 -9.6277180410329945e-05 -2.7031546981939098e-05 0.027031546981939093 -0.096277180410329954 -0.59937417655118119 -0.16828506136295135
                 -9.6277180410329945e-05 -2.7031546981939098e-05 -9.6277180410329945e-05 -2.7031546981939098e-05 -0.59937417655118119 -0.16828506136295135 0.027031546981939093 -0.096277180410329954
18.4054 0.017234997903612648 -0.098503577839906251 -0.61111910336561248 -0.10692643552990767 -9.8503577839906243e-05 -1.7234997903612653e-05 -9.8503577839906243e-05 -1.7234997903612653e-05
                 -0.61111910336561248 -0.10692643552990767 0.017234997903612648 -0.098503577839906251 -9.8503577839906243e-05 -1.7234997903612653e-05 -9.8503577839906243e-05 -1.7234997903612653e-05
                 -9.8503577839906243e-05 -1.7234997903612653e-05 -9.8503577839906243e-05 -1.7234997903612653e-05 0.017234997903612648 -0.098503577839906251 -0.61111910336561248 -0.10692643552990767
                 -9.8503577839906243e-05 -1.7234997903612653e-05 -9.8503577839906243e-05 -1.7234997903612653e-05 -0.61111910336561248 -0.10692643552990767 0.017234997903612648 -0.098503577839906251
18.605350000000001 0.0072644973368805313 -0.099735786347942612 -0.61663455491642594 -0.044914069924624378 -9.9735786347942618e-05 -7.2644973368805383e-06 -9.9735786347942618e-05 -7.2644973368805383e-06
                 -0.61663455491642594 -0.044914069924624378 0.0072644973368805313 -0.099735786347942612 -9.9735786347942618e-05 -7.2644973368805383e-06 -9.9735786347942618e-05 -7.2644973368805383e-06
                 -9.9735786347942618e-05 -7.2644973368805383e-06 -9.9735786347942618e-05 -7.2644973368805383e-06 0.0072644973368805313 -0.099735786347942612 -0.61663455491642594 -0.044914069924624378
                 -9.9735786347942618e-05 -7.2644973368805383e-06 -9.9735786347942618e-05 -7.2644973368805383e-06 -0.61663455491642594 -0.044914069924624378 0.0072644973368805313 -0.099735786347942612
18.805299999999999 -0.002779323234376076 -0.099961369350158757 -0.61590788271700603 0.017124686264294635 -9.9961369350158748e-05 2.7793232343760695e-06 -9.9961369350158748e-05 2.7793232343760695e-06
                 -0.61590788271700603 0.017124686264294635 -0.002779323234376076 -0.099961369350158757 -9.9961369350158748e-05 2.7793232343760695e-06 -9.9961369350158748e-05 2.7793232343760695e-06
                 -9.9961369350158748e-05 2.7793232343760695e-06 -9.9961369350158748e-05 2.7793232343760695e-06 -0.002779323234376076 -0.099961369350158757 -0.61590788271700603 0.017124686264294635
                 -9.9961369350158748e-05 2.7793232343760695e-06 -9.9961369350158748e-05 2.7793232343760695e-06 -0.61590788271700603 0.017124686264294635 -0.002779323234376076 -0.099961369350158757
19.00525 -0.01279509231319346 -0.099178050054923236 -0.60898911728619398 0.078566497013118519 -9.9178050054923237e-05 1.2795092313193451e-05 -9.9178050054923237e-05 1.2795092313193451e-05
                 -0.60898911728619398 0.078566497013118519 -0.01279509231319346 -0.099178050054923236 -9.9178050054923237e-05 1.2795092313193451e-05 -9.9178050054923237e-05 1.2795092313193451e-05
                 -9.9178050054923237e-05 1.2795092313193451e-05 -9.9178050054923237e-05 1.2795092313193451e-05 -0.01279509231319346 -0.099178050054923236 -0.60898911728619398 0.078566497013118519
                 -9.9178050054923237e-05 1.2795092313193451e-05 -9.9178050054923237e-05 1.2795092313193451e-05 -0.60898911728619398 0.078566497013118519 -0.01279509231319346 -0.099178050054923236
19.205200000000001 -0.022681721524131809 -0.09739373444273372 -0.5959900441906858 0.13879825320217701 -9.7393734442733715e-05 2.2681721524131801e-05 -9.7393734442733715e-05 2.2681721524131801e-05
                 -0.5959900441906858 0.13879825320217701 -0.022681721524131809 -0.09739373444273372 -9.7393734442733715e-05 2.2681721524131801e-05 -9.7393734442733715e-05 2.2681721524131801e-05
                 -9.7393734442733715e-05 2.2681721524131801e-05 -9.7393734442733715e-05 2.2681721524131801e-05 -0.022681721524131809 -0.09739373444273372 -0.5959900441906858 0.13879825320217701
                 -9.7393734442733715e-05 2.2681721524131801e-05 -9.7393734442733715e-05 2.2681721524131801e-05 -0.5959900441906858 0.13879825320217701 -0.022681721524131809 -0.09739373444273372
19.405149999999999 -0.032339425890356613 -0.094626431471772909 -0.57708266879332071 0.19722314272854979 -9.46264314717729e-05 3.2339425890356608e-05 -9.46264314717729e-05 3.2339425890356608e-05
                 -0.57708266879332071 0.19722314272854979 -0.032339425890356613 -0.094626431471772909 -9.46264314717729e-05 3.2339425890356608e-05 -9.46264314717729e-05 3.2339425890356608e-05
                 -9.46264314717729e-05 3.2339425890356608e-05 -9.46264314717729e-05 3.2339425890356608e-05 -0.032339425890356613 -0.094626431471772909 -0.57708266879332071 0.19722314272854979
                 -9.46264314717729e-05 3.2339425890356608e-05 -9.46264314717729e-05 3.2339425890356608e-05 -0.57708266879332071 0.19722314272854979 -0.032339425890356613 -0.094626431471772909
19.6051 -0.041670730955619732 -0.090904071314899637 -0.55249708904514105 0.25326651731152516 -9.0904071314899633e-05 4.1670730955619728e-05 -9.0904071314899633e-05 4.1670730955619728e-05
                 -0.55249708904514105 0.25326651731152516 -0.041670730955619732 -0.090904071314899637 -9.0904071314899633e-05 4.1670730955619728e-05 -9.0904071314899633e-05 4.1670730955619728e-05
                 -9.0904071314899633e-05 4.1670730955619728e-05 -9.0904071314899633e-05 4.1670730955619728e-05 -0.041670730955619732 -0.090904071314899637 -0.55249708904514105 0.25326651731152516
                 -9.0904071314899633e-05 4.1670730955619728e-05 -9.0904071314899633e-05 4.1670730955619728e-05 -0.55249708904514105 0.25326651731152516 -0.041670730955619732 -0.090904071314899637
19.805050000000001 -0.050581456586338183 -0.0862642234625942 -0.52251880144113716 0.30638149872294151 -8.6264223462594199e-05 5.0581456586338185e-05 -8.6264223462594199e-05 5.0581456586338185e-05
                 -0.52251880144113716 0.30638149872294151 -0.050581456586338183 -0.0862642234625942 -8.6264223462594199e-05 5.0581456586338185e-05 -8.6264223462594199e-05 5.0581456586338185e-05
                 -8.6264223462594199e-05 5.0581456586338185e-05 -8.6264223462594199e-05 5.0581456586338185e-05 -0.050581456586338183 -0.0862642234625942 -0.52251880144113716 0.30638149872294151
                 -8.6264223462594199e-05 5.0581456586338185e-05 -8.6264223462594199e-05 5.0581456586338185e-05 -0.52251880144113716 0.30638149872294151 -0.050581456586338183 -0.0862642234625942
20.004999999999999 -0.058981667524329075 -0.080753717537024303 -0.48748547075459847 0.35605427014311897 -8.0753717537024295e-05 5.8981667524329076e-05 -8.0753717537024295e-05 5.8981667524329076e-05
                 -0.48748547075459847 0.35605427014311897 -0.058981667524329075 -0.080753717537024303 -8.0753717537024295e-05 5.8981667524329076e-05 -8.0753717537024295e-05 5.8981667524329076e-05
                 -8.0753717537024295e-05 5.8981667524329076e-05 -8.0753717537024295e-05 5.8981667524329076e-05 -0.058981667524329075 -0.080753717537024303 -0.48748547075459847 0.35605427014311897
                 -8.0753717537024295e-05 5.8981667524329076e-05 -8.0753717537024295e-05 5.8981667524329076e-05 -0.48748547075459847 0.35605427014311897 -0.058981667524329075 -0.080753717537024303
20.20495 -0.066786581096350883 -0.074428170644323555 -0.44778319931993599 0.40180900183451179 -7.4428170644323555e-05 6.6786581096350882e-05 -7.4428170644323555e-05 6.6786581096350882e-05
                 -0.44778319931993599 0.40180900183451179 -0.066786581096350883 -0.074428170644323555 -7.4428170644323555e-05 6.6786581096350882e-05 -7.4428170644323555e-05 6.6786581096350882e-05
                 -7.4428170644323555e-05 6.6786581096350882e-05 -7.4428170644323555e-05 6.6786581096350882e-05 -0.066786581096350883 -0.074428170644323555 -0.44778319931993599 0.40180900183451179
                 -7.4428170644323555e-05 6.6786581096350882e-05 -7.4428170644323555e-05 6.6786581096350882e-05 -0.44778319931993599 0.40180900183451179 -0.066786581096350883 -0.074428170644323555
20.404900000000001 -0.073917422919004883 -0.067351426035481762 -0.40384233639954448 0.44321236430121325 -6.7351426035481781e-05 7.3917422919004888e-05 -6.7351426035481781e-05 7.3917422919004888e-05
                 -0.40384233639954448 0.44321236430121325 -0.073917422919004883 -0.067351426035481762 -6.7351426035481781e-05 7.3917422919004888e-05 -6.7351426035481781e-05 7.3917422919004888e-05
                 -6.7351426035481781e-05 7.3917422919004888e-05 -6.7351426035481781e-05 7.3917422919004888e-05 -0.073917422919004883 -0.067351426035481762 -0.40384233639954448 0.44321236430121325
                 -6.7351426035481781e-05 7.3917422919004888e-05 -6.7351426035481781e-05 7.3917422919004888e-05 -0.40384233639954448 0.44321236430121325 -0.073917422919004883 -0.067351426035481762
20.604849999999999 -0.0803022219624384 -0.059594908741395669 -0.35613287250151054 0.47987758652061197 -5.959490874139567e-05 8.0302221962438397e-05 -5.959490874139567e-05 8.0302221962438397e-05
                 -0.35613287250151054 0.47987758652061197 -0.0803022219624384 -0.059594908741395669 -5.959490874139567e-05 8.0302221962438397e-05 -5.959490874139567e-05 8.0302221962438397e-05
                 -5.959490874139567e-05 8.0302221962438397e-05 -5.959490874139567e-05 8.0302221962438397e-05 -0.0803022219624384 -0.059594908741395669 -0.35613287250151054 0.47987758652061197
                 -5.959490874139567e-05 8.0302221962438397e-05 -5.959490874139567e-05 8.0302221962438397e-05 -0.35613287250151054 0.47987758652061197 -0.0803022219624384 -0.059594908741395669
20.8048 -0.085876536948329737 -0.051236904685608792 -0.30515946737142491 0.51146802164681571 -5.1236904685608791e-05 8.5876536948329728e-05 -5.1236904685608791e-05 8.5876536948329728e-05
                 -0.30515946737142491 0.51146802164681571 -0.085876536948329737 -0.051236904685608792 -5.1236904685608791e-05 8.5876536948329728e-05 -5.1236904685608791e-05 8.5876536948329728e-05
                 -5.1236904685608791e-05 8.5876536948329728e-05 -5.1236904685608791e-05 8.5876536948329728e-05 -0.085876536948329737 -0.051236904685608792 -0.30515946737142491 0.51146802164681571
                 -5.1236904685608791e-05 8.5876536948329728e-05 -5.1236904685608791e-05 8.5876536948329728e-05 -0.30515946737142491 0.51146802164681571 -0.085876536948329737 -0.051236904685608792
21.004750000000001 -0.090584106750680585 -0.042361770550595562 -0.25145616372752394 0.53770018774369688 -4.2361770550595562e-05 9.0584106750680587e-05 -4.2361770550595562e-05 9.0584106750680587e-05
                 -0.25145616372752394 0.53770018774369688 -0.090584106750680585 -0.042361770550595562 -4.2361770550595562e-05 9.0584106750680587e-05 -4.2361770550595562e-05 9.0584106750680587e-05
                 -4.2361770550595562e-05 9.0584106750680587e-05 -4.2361770550595562e-05 9.0584106750680587e-05 -0.090584106750680585 -0.042361770550595562 -0.25145616372752394 0.53770018774369688
                 -4.2361770550595562e-05 9.0584106750680587e-05 -4.2361770550595562e-05 9.0584106750680587e-05 -0.25145616372752394 0.53770018774369688 -0.090584106750680585 -0.042361770550595562
21.204699999999999 -0.094377418234968327 -0.033059082372350689 -0.19558084161386535 0.55834625655480252 -3.305908237235069e-05 9.4377418234968327e-05 -3.305908237235069e-05 9.4377418234968327e-05
                 -0.19558084161386535 0.55834625655480252 -0.094377418234968327 -0.033059082372350689 -3.305908237235069e-05 9.4377418234968327e-05 -3.305908237235069e-05 9.4377418234968327e-05
                 -3.305908237235069e-05 9.4377418234968327e-05 -3.305908237235069e-05 9.4377418234968327e-05 -0.094377418234968327 -0.033059082372350689 -0.19558084161386535 0.55834625655480252
                 -3.305908237235069e-05 9.4377418234968327e-05 -3.305908237235069e-05 9.4377418234968327e-05 -0.19558084161386535 0.55834625655480252 -0.094377418234968327 -0.033059082372350689
21.40465 -0.097218185804503615 -0.023422731456450886 -0.13810947048642372 0.57323596900193574 -2.342273145645089e-05 9.7218185804503609e-05 -2.342273145645089e-05 9.7218185804503609e-05
                 -0.13810947048642372 0.57323596900193574 -0.097218185804503615 -0.023422731456450886 -2.342273145645089e-05 9.7218185804503609e-05 -2.342273145645089e-05 9.7218185804503609e-05
                 -2.342273145645089e-05 9.7218185804503609e-05 -2.342273145645089e-05 9.7218185804503609e-05 -0.097218185804503615 -0.023422731456450886 -0.13810947048642372 0.57323596900193574
                 -2.342273145645089e-05 9.7218185804503609e-05 -2.342273145645089e-05 9.7218185804503609e-05 -0.13810947048642372 0.57323596900193574 -0.097218185804503615 -0.023422731456450886
21.604600000000001 -0.099077737813969183 -0.013549976740436957 -0.079630217803144512 0.58225796196568136 -1.3549976740436965e-05 9.9077737813969182e-05 -1.3549976740436965e-05 9.9077737813969182e-05
                 -0.079630217803144512 0.58225796196568136 -0.099077737813969183 -0.013549976740436957 -1.3549976740436965e-05 9.9077737813969182e-05 -1.3549976740436965e-05 9.9077737813969182e-05
                 -1.3549976740436965e-05 9.9077737813969182e-05 -1.3549976740436965e-05 9.9077737813969182e-05 -0.099077737813969183 -0.013549976740436957 -0.079630217803144512 0.58225796196568136
                 -1.3549976740436965e-05 9.9077737813969182e-05 -1.3549976740436965e-05 9.9077737813969182e-05 -0.079630217803144512 0.58225796196568136 -0.099077737813969183 -0.013549976740436957
21.804549999999999 -0.099937305950097921 -0.0035404631669492398 -0.020737473948173574 0.58536049688001646 -3.5404631669492463e-06 9.9937305950097914e-05 -3.5404631669492463e-06 9.9937305950097914e-05
                 -0.020737473948173574 0.58536049688001646 -0.099937305950097921 -0.0035404631669492398 -3.5404631669492463e-06 9.9937305950097914e-05 -3.5404631669492463e-06 9.9937305950097914e-05
                 -3.5404631669492463e-06 9.9937305950097914e-05 -3.5404631669492463e-06 9.9937305950097914e-05 -0.099937305950097921 -0.0035404631669492398 -0.020737473948173574 0.58536049688001646
                 -3.5404631669492463e-06 9.9937305950097914e-05 -3.5404631669492463e-06 9.9937305950097914e-05 -0.020737473948173574 0.58536049688001646 -0.099937305950097921 -0.0035404631669492398
22.0045 -0.099788214658793339 0.006504784024899242 0.03797414622419773 0.58255158670903739 6.5047840248992369e-06 9.9788214658793332e-05 6.5047840248992369e-06 9.9788214658793332e-05
                 0.03797414622419773 0.58255158670903739 -0.099788214658793339 0.006504784024899242 6.5047840248992369e-06 9.9788214658793332e-05 6.5047840248992369e-06 9.9788214658793332e-05
                 6.5047840248992369e-06 9.9788214658793332e-05 6.5047840248992369e-06 9.9788214658793332e-05 -0.099788214658793339 0.006504784024899242 0.03797414622419773 0.58255158670903739
                 6.5047840248992369e-06 9.9788214658793332e-05 6.5047840248992369e-06 9.9788214658793332e-05 0.03797414622419773 0.58255158670903739 -0.099788214658793339 0.006504784024899242
22.204450000000001 -0.098631968706819839 0.01648437893937504 0.095915765089694294 0.57389852390617746 1.6484378939375033e-05 9.8631968706819849e-05 1.6484378939375033e-05 9.8631968706819849e-05
                 0.095915765089694294 0.57389852390617746 -0.098631968706819839 0.01648437893937504 1.6484378939375033e-05 9.8631968706819849e-05 1.6484378939375033e-05 9.8631968706819849e-05
                 1.6484378939375033e-05 9.8631968706819849e-05 1.6484378939375033e-05 9.8631968706819849e-05 -0.098631968706819839 0.01648437893937504 0.095915765089694294 0.57389852390617746
                 1.6484378939375033e-05 9.8631968706819849e-05 1.6484378939375033e-05 9.8631968706819849e-05 0.095915765089694294 0.57389852390617746 -0.098631968706819839 0.01648437893937504
22.404399999999999 -0.096480237994309367 0.026297598304054776 0.15251010781092003 0.55952681792491266 2.629759830405477e-05 9.6480237994309357e-05 2.629759830405477e-05 9.6480237994309357e-05
                 0.15251010781092003 0.55952681792491266 -0.096480237994309367 0.026297598304054776 2.629759830405477e-05 9.6480237994309357e-05 2.629759830405477e-05 9.6480237994309357e-05
                 2.629759830405477e-05 9.6480237994309357e-05 2.629759830405477e-05 9.6480237994309357e-05 -0.096480237994309367 0.026297598304054776 0.15251010781092003 0.55952681792491266
                 2.629759830405477e-05 9.6480237994309357e-05 2.629759830405477e-05 9.6480237994309357e-05 0.15251010781092003 0.55952681792491266 -0.096480237994309367 0.026297598304054776
22.60435 -0.093354739771370279 0.035845398061951216 0.20719721370060806 0.53961855669570857 3.5845398061951212e-05 9.3354739771370288e-05 3.5845398061951212e-05 9.3354739771370288e-05
                 0.20719721370060806 0.53961855669570857 -0.093354739771370279 0.035845398061951216 3.5845398061951212e-05 9.3354739771370288e-05 3.5845398061951212e-05 9.3354739771370288e-05
                 3.5845398061951212e-05 9.3354739771370288e-05 3.5845398061951212e-05 9.3354739771370288e-05 -0.093354739771370279 0.035845398061951216 0.20719721370060806 0.53961855669570857
                 3.5845398061951212e-05 9.3354739771370288e-05 3.5845398061951212e-05 9.3354739771370288e-05 0.20719721370060806 0.53961855669570857 -0.093354739771370279 0.035845398061951216
22.804300000000001 -0.089287019447577262 0.045031413015449134 0.25943993724931247 0.51441021214924787 4.5031413015449128e-05 8.9287019447577257e-05 4.5031413015449128e-05 8.9287019447577257e-05
                 0.25943993724931247 0.51441021214924787 -0.089287019447577262 0.045031413015449134 4.5031413015449128e-05 8.9287019447577257e-05 4.5031413015449128e-05 8.9287019447577257e-05
                 4.5031413015449128e-05 8.9287019447577257e-05 4.5031413015449128e-05 8.9287019447577257e-05 -0.089287019447577262 0.045031413015449134 0.25943993724931247 0.51441021214924787
                 4.5031413015449128e-05 8.9287019447577257e-05 4.5031413015449128e-05 8.9287019447577257e-05 0.25943993724931247 0.51441021214924787 -0.089287019447577262 0.045031413015449134
23.004249999999999 -0.084318132206615229 0.053762929432721165 0.30872918513272446 0.48418991529539673 5.3762929432721166e-05 8.4318132206615245e-05 5.3762929432721166e-05 8.4318132206615245e-05
                 0.30872918513272446 0.48418991529539673 -0.084318132206615229 0.053762929432721165 5.3762929432721166e-05 8.4318132206615245e-05 5.3762929432721166e-05 8.4318132206615245e-05
                 5.3762929432721166e-05 8.4318132206615245e-05 5.3762929432721166e-05 8.4318132206615245e-05 -0.084318132206615229 0.053762929432721165 0.30872918513272446 0.48418991529539673
                 5.3762929432721166e-05 8.4318132206615245e-05 5.3762929432721166e-05 8.4318132206615245e-05 0.30872918513272446 0.48418991529539673 -0.084318132206615229 0.053762929432721165
23.2042 -0.078498228639515388 0.061951820800186068 0.35458883849180256 0.44929423150814179 6.1951820800186069e-05 7.8498228639515394e-05 6.1951820800186069e-05 7.8498228639515394e-05
                 0.35458883849180256 0.44929423150814179 -0.078498228639515388 0.061951820800186068 6.1951820800186069e-05 7.8498228639515394e-05 6.1951820800186069e-05 7.8498228639515394e-05
                 6.1951820800186069e-05 7.8498228639515394e-05 6.1951820800186069e-05 7.8498228639515394e-05 -0.078498228639515388 0.061951820800186068 0.35458883849180256 0.44929423150814179
                 6.1951820800186069e-05 7.8498228639515394e-05 6.1951820800186069e-05 7.8498228639515394e-05 0.35458883849180256 0.44929423150814179 -0.078498228639515388 0.061951820800186068
23.404150000000001 -0.071886048578654535 0.069515437276531034 0.39658031324478255 0.41010447146934953 6.9515437276531026e-05 7.188604857865455e-05 6.9515437276531026e-05 7.188604857865455e-05
                 0.39658031324478255 0.41010447146934953 -0.071886048578654535 0.069515437276531034 6.9515437276531026e-05 7.188604857865455e-05 6.9515437276531026e-05 7.188604857865455e-05
                 6.9515437276531026e-05 7.188604857865455e-05 6.9515437276531026e-05 7.188604857865455e-05 -0.071886048578654535 0.069515437276531034 0.39658031324478255 0.41010447146934953
                 6.9515437276531026e-05 7.188604857865455e-05 6.9515437276531026e-05 7.188604857865455e-05 0.39658031324478255 0.41010447146934953 -0.071886048578654535 0.069515437276531034
23.604099999999999 -0.064548328241212746 0.076377439871107622 0.43430671510636659 0.36704257764279113 7.6377439871107601e-05 6.4548328241212754e-05 7.6377439871107601e-05 6.4548328241212754e-05
                 0.43430671510636659 0.36704257764279113 -0.064548328241212746 0.076377439871107622 7.6377439871107601e-05 6.4548328241212754e-05 7.6377439871107601e-05 6.4548328241212754e-05
                 7.6377439871107601e-05 6.4548328241212754e-05 7.6377439871107601e-05 6.4548328241212754e-05 -0.064548328241212746 0.076377439871107622 0.43430671510636659 0.36704257764279113
                 7.6377439871107601e-05 6.4548328241212754e-05 7.6377439871107601e-05 6.4548328241212754e-05 0.43430671510636659 0.36704257764279113 -0.064548328241212746 0.076377439871107622
23.80405 -0.056559126665742726 0.082468570927405255 0.46741655031409446 0.32056663014266162 8.2468570927405257e-05 5.6559126665742733e-05 8.2468570927405257e-05 5.6559126665742733e-05
                 0.46741655031409446 0.32056663014266162 -0.056559126665742726 0.082468570927405255 8.2468570927405257e-05 5.6559126665742733e-05 8.2468570927405257e-05 5.6559126665742733e-05
                 8.2468570927405257e-05 5.6559126665742733e-05 8.2468570927405257e-05 5.6559126665742733e-05 -0.056559126665742726 0.082468570927405255 0.46741655031409446 0.32056663014266162
                 8.2468570927405257e-05 5.6559126665742733e-05 8.2468570927405257e-05 5.6559126665742733e-05 0.46741655031409446 0.32056663014266162 -0.056559126665742726 0.082468570927405255
24.004000000000001 -0.047999078240075592 0.087727353135171604 0.49560695774935087 0.27116601939058838 8.7727353135171599e-05 4.7999078240075604e-05 8.7727353135171599e-05 4.7999078240075604e-05
                 0.49560695774935087 0.27116601939058838 -0.047999078240075592 0.087727353135171604 8.7727353135171599e-05 4.7999078240075604e-05 8.7727353135171599e-05 4.7999078240075604e-05
                 8.7727353135171599e-05 4.7999078240075604e-05 8.7727353135171599e-05 4.7999078240075604e-05 -0.047999078240075592 0.087727353135171604 0.49560695774935087 0.27116601939058838
                 8.7727353135171599e-05 4.7999078240075604e-05 8.7727353135171599e-05 4.7999078240075604e-05 0.49560695774935087 0.27116601939058838 -0.047999078240075592 0.087727353135171604
24.203949999999999 -0.038954578864738854 0.09210071001610598 0.51862643314169909 0.21935633598941406 9.2100710016105957e-05 3.8954578864738858e-05 9.2100710016105957e-05 3.8954578864738858e-05
                 0.51862643314169909 0.21935633598941406 -0.038954578864738854 0.09210071001610598 9.2100710016105957e-05 3.8954578864738858e-05 9.2100710016105957e-05 3.8954578864738858e-05
                 9.2100710016105957e-05 3.8954578864738858e-05 9.2100710016105957e-05 3.8954578864738858e-05 -0.038954578864738854 0.09210071001610598 0.51862643314169909 0.21935633598941406
                 9.2100710016105957e-05 3.8954578864738858e-05 9.2100710016105957e-05 3.8954578864738858e-05 0.51862643314169909 0.21935633598941406 -0.038954578864738854 0.09210071001610598
24.4039 -0.029516913965876287 0.095544501620611622 0.536277021308319 0.16567403075363624 9.5544501620611631e-05 2.9516913965876292e-05 9.5544501620611631e-05 2.9516913965876292e-05
                 0.536277021308319 0.16567403075363624 -0.029516913965876287 0.095544501620611622 9.5544501620611631e-05 2.9516913965876292e-05 9.5544501620611631e-05 2.9516913965876292e-05
                 9.5544501620611631e-05 2.9516913965876292e-05 9.5544501620611631e-05 2.9516913965876292e-05 -0.029516913965876287 0.095544501620611622 0.536277021308319 0.16567403075363624
                 9.5544501620611631e-05 2.9516913965876292e-05 9.5544501620611631e-05 2.9516913965876292e-05 0.536277021308319 0.16567403075363624 -0.029516913965876287 0.095544501620611622
24.603850000000001 -0.01978133715856897 0.098023970028860902 0.54841595785115804 0.11067089980337715 9.8023970028860899e-05 1.9781337158568973e-05 9.8023970028860899e-05 1.9781337158568973e-05
                 0.54841595785115804 0.11067089980337715 -0.01978133715856897 0.098023970028860902 9.8023970028860899e-05 1.9781337158568973e-05 9.8023970028860899e-05 1.9781337158568973e-05
                 9.8023970028860899e-05 1.9781337158568973e-05 9.8023970028860899e-05 1.9781337158568973e-05 -0.01978133715856897 0.098023970028860902 0.54841595785115804 0.11067089980337715
                 9.8023970028860899e-05 1.9781337158568973e-05 9.8023970028860899e-05 1.9781337158568973e-05 0.54841595785115804 0.11067089980337715 -0.01978133715856897 0.098023970028860902
24.803799999999999 -0.0098461088595338704 0.099514090159766866 0.55495674735704603 0.054908451034800819 9.9514090159766869e-05 9.8461088595338752e-06 9.9514090159766869e-05 9.8461088595338752e-06
                 0.55495674735704603 0.054908451034800819 -0.0098461088595338704 0.099514090159766866 9.9514090159766869e-05 9.8461088595338752e-06 9.9514090159766869e-05 9.8461088595338752e-06
                 9.9514090159766869e-05 9.8461088595338752e-06 9.9514090159766869e-05 9.8461088595338752e-06 -0.0098461088595338704 0.099514090159766866 0.55495674735704603 0.054908451034800819
                 9.9514090159766869e-05 9.8461088595338752e-06 9.9514090159766869e-05 9.8461088595338752e-06 0.55495674735704603 0.054908451034800819 -0.0098461088595338704 0.099514090159766866
25.00375 0.00018849544759254363 0.099999822347173389 0.55586967086336558 -0.0010477908855551911 9.9999822347173392e-05 -1.8849544759253751e-07 9.9999822347173392e-05 -1.8849544759253751e-07
                 0.55586967086336558 -0.0010477908855551911 0.00018849544759254363 0.099999822347173389 9.9999822347173392e-05 -1.8849544759253751e-07 9.9999822347173392e-05 -1.8849544759253751e-07
                 9.9999822347173392e-05 -1.8849544759253751e-07 9.9999822347173392e-05 -1.8849544759253751e-07 0.00018849544759254363 0.099999822347173389 0.55586967086336558 -0.0010477908855551911
                 9.9999822347173392e-05 -1.8849544759253751e-07 9.9999822347173392e-05 -1.8849544759253751e-07 0.55586967086336558 -0.0010477908855551911 0.00018849544759254363 0.099999822347173389
25.203700000000001 0.010221197284881319 0.09947626413403117 0.55118172110626229 -0.056633983596899237 9.947626413403117e-05 -1.0221197284881314e-05 9.947626413403117e-05 -1.0221197284881314e-05
                 0.55118172110626229 -0.056633983596899237 0.010221197284881319 0.09947626413403117 9.947626413403117e-05 -1.0221197284881314e-05 9.947626413403117e-05 -1.0221197284881314e-05
                 9.947626413403117e-05 -1.0221197284881314e-05 9.947626413403117e-05 -1.0221197284881314e-05 0.010221197284881319 0.09947626413403117 0.55118172110626229 -0.056633983596899237
                 9.947626413403117e-05 -1.0221197284881314e-05 9.947626413403117e-05 -1.0221197284881314e-05 0.55118172110626229 -0.056633983596899237 0.010221197284881319 0.09947626413403117
25.403649999999999 0.020150737375882882 0.097948699752514315 0.54097596980208018 -0.11129361310245912 9.794869975251432e-05 -2.0150737375882876e-05 9.794869975251432e-05 -2.0150737375882876e-05
                 0.54097596980208018 -0.11129361310245912 0.020150737375882882 0.097948699752514315 9.794869975251432e-05 -2.0150737375882876e-05 9.794869975251432e-05 -2.0150737375882876e-05
                 9.794869975251432e-05 -2.0150737375882876e-05 9.794869975251432e-05 -2.0150737375882876e-05 0.020150737375882882 0.097948699752514315 0.54097596980208018 -0.11129361310245912
                 9.794869975251432e-05 -2.0150737375882876e-05 9.794869975251432e-05 -2.0150737375882876e-05 0.54097596980208018 -0.11129361310245912 0.020150737375882882 0.097948699752514315
25.6036 0.029876897647599699 0.095432546790677517 0.52539037686856682 -0.16448303060763952 9.5432546790677518e-05 -2.9876897647599694e-05 9.5432546790677518e-05 -2.9876897647599694e-05
                 0.52539037686856682 -0.16448303060763952 0.029876897647599699 0.095432546790677517 9.5432546790677518e-05 -2.9876897647599694e-05 9.5432546790677518e-05 -2.9876897647599694e-05
                 9.5432546790677518e-05 -2.9876897647599694e-05 9.5432546790677518e-05 -2.9876897647599694e-05 0.029876897647599699 0.095432546790677517 0.52539037686856682 -0.16448303060763952
                 9.5432546790677518e-05 -2.9876897647599694e-05 9.5432546790677518e-05 -2.9876897647599694e-05 0.52539037686856682 -0.16448303060763952 0.029876897647599699 0.095432546790677517
25.803550000000001 0.039301512723674131 0.091953200583943143 0.50461605701437362 -0.21567682537831925 9.1953200583943151e-05 -3.9301512723674121e-05 9.1953200583943151e-05 -3.9301512723674121e-05
                 0.50461605701437362 -0.21567682537831925 0.039301512723674131 0.091953200583943143 9.1953200583943151e-05 -3.9301512723674121e-05 9.1953200583943151e-05 -3.9301512723674121e-05
                 9.1953200583943151e-05 -3.9301512723674121e-05 9.1953200583943151e-05 -3.9301512723674121e-05 0.039301512723674131 0.091953200583943143 0.50461605701437362 -0.21567682537831925
                 9.1953200583943151e-05 -3.9301512723674121e-05 9.1953200583943151e-05 -3.9301512723674121e-05 0.50461605701437362 -0.21567682537831925 0.039301512723674131 0.091953200583943143
26.003499999999999 0.048329460699867752 0.087545777901963606 0.47889502445912502 -0.26437298084069411 8.7545777901963605e-05 -4.8329460699867745e-05 8.7545777901963605e-05 -4.8329460699867745e-05
                 0.47889502445912502 -0.26437298084069411 0.048329460699867752 0.087545777901963606 8.7545777901963605e-05 -4.8329460699867745e-05 8.7545777901963605e-05 -4.8329460699867745e-05
                 8.7545777901963605e-05 -4.8329460699867745e-05 8.7545777901963605e-05 -4.8329460699867745e-05 0.048329460699867752 0.087545777901963606 0.47889502445912502 -0.26437298084069411
                 8.7545777901963605e-05 -4.8329460699867745e-05 8.7545777901963605e-05 -4.8329460699867745e-05 0.47889502445912502 -0.26437298084069411 0.048329460699867752 0.087545777901963606
26.20345 0.056869623202015655 0.082254762517806612 0.448517441639666 -0.31009776364083552 8.2254762517806616e-05 -5.6869623202015655e-05 8.2254762517806616e-05 -5.6869623202015655e-05
                 0.448517441639666 -0.31009776364083552 0.056869623202015655 0.082254762517806612 8.2254762517806616e-05 -5.6869623202015655e-05 8.2254762517806616e-05 -5.6869623202015655e-05
                 8.2254762517806616e-05 -5.6869623202015655e-05 8.2254762517806616e-05 -5.6869623202015655e-05 0.056869623202015655 0.082254762517806612 0.448517441639666 -0.31009776364083552
                 8.2254762517806616e-05 -5.6869623202015655e-05 8.2254762517806616e-05 -5.6869623202015655e-05 0.448517441639666 -0.31009776364083552 0.056869623202015655 0.082254762517806612
26.403400000000001 0.064835805036664793 0.076133556236705466 0.4138184025616089 -0.35241029836634846 7.6133556236705456e-05 -6.4835805036664797e-05 7.6133556236705456e-05 -6.4835805036664797e-05
                 0.4138184025616089 -0.35241029836634846 0.064835805036664793 0.076133556236705466 7.6133556236705456e-05 -6.4835805036664797e-05 7.6133556236705456e-05 -6.4835805036664797e-05
                 7.6133556236705456e-05 -6.4835805036664797e-05 7.6133556236705456e-05 -6.4835805036664797e-05 0.064835805036664793 0.076133556236705466 0.4138184025616089 -0.35241029836634846
                 7.6133556236705456e-05 -6.4835805036664797e-05 7.6133556236705456e-05 -6.4835805036664797e-05 0.4138184025616089 -0.35241029836634846 0.064835805036664793 0.076133556236705466
26.603349999999999 0.072147604152430864 0.069243939915808822 0.37517428592273344 -0.39090678407143198 6.9243939915808814e-05 -7.2147604152430854e-05 6.9243939915808814e-05 -7.2147604152430854e-05
                 0.37517428592273344 -0.39090678407143198 0.072147604152430864 0.069243939915808822 6.9243939915808814e-05 -7.2147604152430854e-05 6.9243939915808814e-05 -7.2147604152430854e-05
                 6.9243939915808814e-05 -7.2147604152430854e-05 6.9243939915808814e-05 -7.2147604152430854e-05 0.072147604152430864 0.069243939915808822 0.37517428592273344 -0.39090678407143198
                 6.9243939915808814e-05 -7.2147604152430854e-05 6.9243939915808814e-05 -7.2147604152430854e-05 0.37517428592273344 -0.39090678407143198 0.072147604152430864 0.069243939915808822
26.8033 0.078731223131628059 0.061655449914811214 0.33299871722348073 -0.42522431260321863 6.1655449914811223e-05 -7.8731223131628058e-05 6.1655449914811223e-05 -7.8731223131628058e-05
                 0.33299871722348073 -0.42522431260321863 0.078731223131628059 0.061655449914811214 6.1655449914811223e-05 -7.8731223131628058e-05 6.1655449914811223e-05 -7.8731223131628058e-05
                 6.1655449914811223e-05 -7.8731223131628058e-05 6.1655449914811223e-05 -7.8731223131628058e-05 0.078731223131628059 0.061655449914811214 0.33299871722348073 -0.42522431260321863
                 6.1655449914811223e-05 -7.8731223131628058e-05 6.1655449914811223e-05 -7.8731223131628058e-05 0.33299871722348073 -0.42522431260321863 0.078731223131628059 0.061655449914811214
27.003250000000001 0.08452021402184387 0.053444676270903803 0.28773818275126523 -0.45504425296020395 5.3444676270903804e-05 -8.4520214021843864e-05 5.3444676270903804e-05 -8.4520214021843864e-05
                 0.28773818275126523 -0.45504425296020395 0.08452021402184387 0.053444676270903803 5.3444676270903804e-05 -8.4520214021843864e-05 5.3444676270903804e-05 -8.4520214021843864e-05
                 5.3444676270903804e-05 -8.4520214021843864e-05 5.3444676270903804e-05 -8.4520214021843864e-05 0.08452021402184387 0.053444676270903803 0.28773818275126523 -0.45504425296020395
                 5.3444676270903804e-05 -8.4520214021843864e-05 5.3444676270903804e-05 -8.4520214021843864e-05 0.28773818275126523 -0.45504425296020395 0.08452021402184387 0.053444676270903803
27.203199999999999 0.08945614898993591 0.044694489681507604 0.23986734154528658 -0.48009517047854572 4.4694489681507612e-05 -8.94561489899359e-05 4.4694489681507612e-05 -8.94561489899359e-05
                 0.23986734154528658 -0.48009517047854572 0.08945614898993591 0.044694489681507604 4.4694489681507612e-05 -8.94561489899359e-05 4.4694489681507612e-05 -8.94561489899359e-05
                 4.4694489681507612e-05 -8.94561489899359e-05 4.4694489681507612e-05 -8.94561489899359e-05 0.08945614898993591 0.044694489681507604 0.23986734154528658 -0.48009517047854572
                 4.4694489681507612e-05 -8.94561489899359e-05 4.4694489681507612e-05 -8.94561489899359e-05 0.23986734154528658 -0.48009517047854572 0.08945614898993591 0.044694489681507604
27.40315 0.093489210029590972 0.035493205096793219 0.18988408418761948 -0.5001552544911414 3.5493205096793228e-05 -9.3489210029590967e-05 3.5493205096793228e-05 -9.3489210029590967e-05
                 0.18988408418761948 -0.5001552544911414 0.093489210029590972 0.035493205096793219 3.5493205096793228e-05 -9.3489210029590967e-05 3.5493205096793228e-05 -9.3489210029590967e-05
                 3.5493205096793228e-05 -9.3489210029590967e-05 3.5493205096793228e-05 -9.3489210029590967e-05 0.093489210029590972 0.035493205096793219 0.18988408418761948 -0.5001552544911414
                 3.5493205096793228e-05 -9.3489210029590967e-05 3.5493205096793228e-05 -9.3489210029590967e-05 0.18988408418761948 -0.5001552544911414 0.093489210029590972 0.035493205096793219
27.603100000000001 0.096578691770573127 0.025933690363784175 0.13830438950006307 -0.51505423318761423 2.5933690363784179e-05 -9.6578691770573126e-05 2.5933690363784179e-05 -9.6578691770573126e-05
                 0.13830438950006307 -0.51505423318761423 0.096578691770573127 0.025933690363784175 2.5933690363784179e-05 -9.6578691770573126e-05 2.5933690363784179e-05 -9.6578691770573126e-05
                 2.5933690363784179e-05 -9.6578691770573126e-05 2.5933690363784179e-05 -9.6578691770573126e-05 0.096578691770573127 0.025933690363784175 0.13830438950006307 -0.51505423318761423
                 2.5933690363784179e-05 -9.6578691770573126e-05 2.5933690363784179e-05 -9.6578691770573126e-05 0.13830438950006307 -0.51505423318761423 0.096578691770573127 0.025933690363784175
27.803049999999999 0.098693412314848628 0.01611242891842465 0.0856570319352154 -0.52467475966838351 1.6112428918424657e-05 -9.8693412314848617e-05 1.6112428918424657e-05 -9.8693412314848617e-05
                 0.0856570319352154 -0.52467475966838351 0.098693412314848628 0.01611242891842465 1.6112428918424657e-05 -9.8693412314848617e-05 1.6112428918424657e-05 -9.8693412314848617e-05
                 1.6112428918424657e-05 -9.8693412314848617e-05 1.6112428918424657e-05 -9.8693412314848617e-05 0.098693412314848628 0.01611242891842465 0.0856570319352154 -0.52467475966838351
                 1.6112428918424657e-05 -9.8693412314848617e-05 1.6112428918424657e-05 -9.8693412314848617e-05 0.0856570319352154 -0.52467475966838351 0.098693412314848628 0.01611242891842465
28.003 0.099812027953047833 0.0061285459857945606 0.032478193620738761 -0.52895325857906383 6.128545985794567e-06 -9.9812027953047835e-05 6.128545985794567e-06 -9.9812027953047835e-05
                 0.032478193620738761 -0.52895325857906383 0.099812027953047833 0.0061285459857945606 6.128545985794567e-06 -9.9812027953047835e-05 6.128545985794567e-06 -9.9812027953047835e-05
                 6.128545985794567e-06 -9.9812027953047835e-05 6.128545985794567e-06 -9.9812027953047835e-05 0.099812027953047833 0.0061285459857945606 0.032478193620738761 -0.52895325857906383
                 6.128545985794567e-06 -9.9812027953047835e-05 6.128545985794567e-06 -9.9812027953047835e-05 0.032478193620738761 -0.52895325857906383 0.099812027953047833 0.0061285459857945606
28.202950000000001 0.099923248584858196 -0.0039171918830502358 -0.020693964360909325 -0.52788022817794233 -3.9171918830502297e-06 -9.9923248584858195e-05 -3.9171918830502297e-06 -9.9923248584858195e-05
                 -0.020693964360909325 -0.52788022817794233 0.099923248584858196 -0.0039171918830502358 -3.9171918830502297e-06 -9.9923248584858195e-05 -3.9171918830502297e-06 -9.9923248584858195e-05
                 -3.9171918830502297e-06 -9.9923248584858195e-05 -3.9171918830502297e-06 -9.9923248584858195e-05 0.099923248584858196 -0.0039171918830502358 -0.020693964360909325 -0.52788022817794233
                 -3.9171918830502297e-06 -9.9923248584858195e-05 -3.9171918830502297e-06 -9.9923248584858195e-05 -0.020693964360909325 -0.52788022817794233 0.099923248584858196 -0.0039171918830502358
28.402899999999999 0.099025951669125201 -0.013923393840011844 -0.073324716801540485 -0.52149999817397019 -1.3923393840011836e-05 -9.9025951669125199e-05 -1.3923393840011836e-05 -9.9025951669125199e-05
                 -0.073324716801540485 -0.52149999817397019 0.099025951669125201 -0.013923393840011844 -1.3923393840011836e-05 -9.9025951669125199e-05 -1.3923393840011836e-05 -9.9025951669125199e-05
                 -1.3923393840011836e-05 -9.9025951669125199e-05 -1.3923393840011836e-05 -9.9025951669125199e-05 0.099025951669125201 -0.013923393840011844 -0.073324716801540485 -0.52149999817397019
                 -1.3923393840011836e-05 -9.9025951669125199e-05 -1.3923393840011836e-05 -9.9025951669125199e-05 -0.073324716801540485 -0.52149999817397019 0.099025951669125201 -0.013923393840011844
28.60285 0.097129193553572621 -0.023789068069864139 -0.12488812112337547 -0.50990994912074494 -2.3789068069864129e-05 -9.7129193553572622e-05 -2.3789068069864129e-05 -9.7129193553572622e-05
                 -0.12488812112337547 -0.50990994912074494 0.097129193553572621 -0.023789068069864139 -2.3789068069864129e-05 -9.7129193553572622e-05 -2.3789068069864129e-05 -9.7129193553572622e-05
                 -2.3789068069864129e-05 -9.7129193553572622e-05 -2.3789068069864129e-05 -9.7129193553572622e-05 0.097129193553572621 -0.023789068069864139 -0.12488812112337547 -0.50990994912074494
                 -2.3789068069864129e-05 -9.7129193553572622e-05 -2.3789068069864129e-05 -9.7129193553572622e-05 -0.12488812112337547 -0.50990994912074494 0.097129193553572621 -0.023789068069864139
28.802800000000001 0.094252118069792001 -0.033414641092760371 -0.17487224289393274 -0.4932592045089873 -3.3414641092760356e-05 -9.4252118069791999e-05 -3.3414641092760356e-05 -9.4252118069791999e-05
                 -0.17487224289393274 -0.4932592045089873 0.094252118069792001 -0.033414641092760371 -3.3414641092760356e-05 -9.4252118069791999e-05 -3.3414641092760356e-05 -9.4252118069791999e-05
                 -3.3414641092760356e-05 -9.4252118069791999e-05 -3.3414641092760356e-05 -9.4252118069791999e-05 0.094252118069792001 -0.033414641092760371 -0.17487224289393274 -0.4932592045089873
                 -3.3414641092760356e-05 -9.4252118069791999e-05 -3.3414641092760356e-05 -9.4252118069791999e-05 -0.17487224289393274 -0.4932592045089873 0.094252118069792001 -0.033414641092760371
29.002749999999999 0.0904237633160445 -0.042702962751593312 -0.22278420847068467 -0.47174681191304163 -4.2702962751593304e-05 -9.0423763316044512e-05 -4.2702962751593304e-05 -9.0423763316044512e-05
                 -0.22278420847068467 -0.47174681191304163 0.0904237633160445 -0.042702962751593312 -4.2702962751593304e-05 -9.0423763316044512e-05 -4.2702962751593304e-05 -9.0423763316044512e-05
                 -4.2702962751593304e-05 -9.0423763316044512e-05 -4.2702962751593304e-05 -9.0423763316044512e-05 0.0904237633160445 -0.042702962751593312 -0.22278420847068467 -0.47174681191304163
                 -4.2702962751593304e-05 -9.0423763316044512e-05 -4.2702962751593304e-05 -9.0423763316044512e-05 -0.22278420847068467 -0.47174681191304163 0.0904237633160445 -0.042702962751593312
29.2027 0.08568276857800261 -0.051560286740944816 -0.26815503519328177 -0.44561943456467051 -5.1560286740944818e-05 -8.5682768578002616e-05 -5.1560286740944818e-05 -8.5682768578002616e-05
                 -0.26815503519328177 -0.44561943456467051 0.08568276857800261 -0.051560286740944816 -5.1560286740944818e-05 -8.5682768578002616e-05 -5.1560286740944818e-05 -8.5682768578002616e-05
                 -5.1560286740944818e-05 -8.5682768578002616e-05 -5.1560286740944818e-05 -8.5682768578002616e-05 0.08568276857800261 -0.051560286740944816 -0.26815503519328177 -0.44561943456467051
                 -5.1560286740944818e-05 -8.5682768578002616e-05 -5.1560286740944818e-05 -8.5682768578002616e-05 -0.26815503519328177 -0.44561943456467051 0.08568276857800261 -0.051560286740944816
29.402650000000001 0.080076984345455474 -0.05989721678123016 -0.31054419207192008 -0.4151685795008076 -5.989721678123016e-05 -8.0076984345455471e-05 -5.989721678123016e-05 -8.0076984345455471e-05
                 -0.31054419207192008 -0.4151685795008076 0.080076984345455474 -0.05989721678123016 -5.989721678123016e-05 -8.0076984345455471e-05 -5.989721678123016e-05 -8.0076984345455471e-05
                 -5.989721678123016e-05 -8.0076984345455471e-05 -5.989721678123016e-05 -8.0076984345455471e-05 0.080076984345455474 -0.05989721678123016 -0.31054419207192008 -0.4151685795008076
                 -5.989721678123016e-05 -8.0076984345455471e-05 -5.989721678123016e-05 -8.0076984345455471e-05 -0.31054419207192008 -0.4151685795008076 0.080076984345455474 -0.05989721678123016
29.602599999999999 0.073662989361051479 -0.067629608888367942 -0.349543846906751 -0.38072739291475705 -6.7629608888367947e-05 -7.3662989361051486e-05 -6.7629608888367947e-05 -7.3662989361051486e-05
                 -0.349543846906751 -0.38072739291475705 0.073662989361051479 -0.067629608888367942 -6.7629608888367947e-05 -7.3662989361051486e-05 -6.7629608888367947e-05 -7.3662989361051486e-05
                 -6.7629608888367947e-05 -7.3662989361051486e-05 -6.7629608888367947e-05 -7.3662989361051486e-05 0.073662989361051479 -0.067629608888367942 -0.349543846906751 -0.38072739291475705
                 -6.7629608888367947e-05 -7.3662989361051486e-05 -6.7629608888367947e-05 -7.3662989361051486e-05 -0.349543846906751 -0.38072739291475705 0.073662989361051479 -0.067629608888367942
29.80255 0.066505519575465286 -0.074679420632443344 -0.38478275918279004 -0.34266705748940057 -7.467942063244334e-05 -6.6505519575465295e-05 -7.467942063244334e-05 -6.6505519575465295e-05
                 -0.38478275918279004 -0.34266705748940057 0.066505519575465286 -0.074679420632443344 -7.467942063244334e-05 -6.6505519575465295e-05 -7.467942063244334e-05 -6.6505519575465295e-05
                 -7.467942063244334e-05 -6.6505519575465295e-05 -7.467942063244334e-05 -6.6505519575465295e-05 0.066505519575465286 -0.074679420632443344 -0.38478275918279004 -0.34266705748940057
                 -7.467942063244334e-05 -6.6505519575465295e-05 -7.467942063244334e-05 -6.6505519575465295e-05 -0.38478275918279004 -0.34266705748940057 0.066505519575465286 -0.074679420632443344
30.002500000000001 0.058676814772500745 -0.080975498813861221 -0.41592978188066698 -0.30139283026683705 -8.0975498813861218e-05 -5.8676814772500755e-05 -8.0975498813861218e-05 -5.8676814772500755e-05
                 -0.41592978188066698 -0.30139283026683705 0.058676814772500745 -0.080975498813861221 -8.0975498813861218e-05 -5.8676814772500755e-05 -8.0975498813861218e-05 -5.8676814772500755e-05
                 -8.0975498813861218e-05 -5.8676814772500755e-05 -8.0975498813861218e-05 -5.8676814772500755e-05 0.058676814772500745 -0.080975498813861221 -0.41592978188066698 -0.30139283026683705
                 -8.0975498813861218e-05 -5.8676814772500755e-05 -8.0975498813861218e-05 -5.8676814772500755e-05 -0.41592978188066698 -0.30139283026683705 0.058676814772500745 -0.080975498813861221
30.202449999999999 0.050255889458593411 -0.086454297607034214 -0.44269693948563404 -0.25733976297596411 -8.6454297607034214e-05 -5.025588945859342e-05 -8.6454297607034214e-05 -5.025588945859342e-05
                 -0.44269693948563404 -0.25733976297596411 0.050255889458593411 -0.086454297607034214 -8.6454297607034214e-05 -5.025588945859342e-05 -8.6454297607034214e-05 -5.025588945859342e-05
                 -8.6454297607034214e-05 -5.025588945859342e-05 -8.6454297607034214e-05 -5.025588945859342e-05 0.050255889458593411 -0.086454297607034214 -0.44269693948563404 -0.25733976297596411
                 -8.6454297607034214e-05 -5.025588945859342e-05 -8.6454297607034214e-05 -5.025588945859342e-05 -0.44269693948563404 -0.25733976297596411 0.050255889458593411 -0.086454297607034214
30.4024 0.041327735375563571 -0.091060519923440983 -0.46484205392196504 -0.21096814966652883 -9.1060519923440983e-05 -4.1327735375563577e-05 -9.1060519923440983e-05 -4.1327735375563577e-05
                 -0.46484205392196504 -0.21096814966652883 0.041327735375563571 -0.091060519923440983 -9.1060519923440983e-05 -4.1327735375563577e-05 -9.1060519923440983e-05 -4.1327735375563577e-05
                 -9.1060519923440983e-05 -4.1327735375563577e-05 -9.1060519923440983e-05 -4.1327735375563577e-05 0.041327735375563571 -0.091060519923440983 -0.46484205392196504 -0.21096814966652883
                 -9.1060519923440983e-05 -4.1327735375563577e-05 -9.1060519923440983e-05 -4.1327735375563577e-05 -0.46484205392196504 -0.21096814966652883 0.041327735375563571 -0.091060519923440983
30.602350000000001 0.031982463685602924 -0.094747675520822638 -0.48217089484086961 -0.16275874895858231 -9.4747675520822622e-05 -3.1982463685602934e-05 -9.4747675520822622e-05 -3.1982463685602934e-05
                 -0.48217089484086961 -0.16275874895858231 0.031982463685602924 -0.094747675520822638 -9.4747675520822622e-05 -3.1982463685602934e-05 -9.4747675520822622e-05 -3.1982463685602934e-05
                 -9.4747675520822622e-05 -3.1982463685602934e-05 -9.4747675520822622e-05 -3.1982463685602934e-05 0.031982463685602924 -0.094747675520822638 -0.48217089484086961 -0.16275874895858231
                 -9.4747675520822622e-05 -3.1982463685602934e-05 -9.4747675520822622e-05 -3.1982463685602934e-05 -0.48217089484086961 -0.16275874895858231 0.031982463685602924 -0.094747675520822638
30.802299999999999 0.022314395486347213 -0.09747855022556956 -0.49453883559889067 -0.11320783018802652 -9.7478550225569565e-05 -2.2314395486347217e-05 -9.7478550225569565e-05 -2.2314395486347217e-05
                 -0.49453883559889067 -0.11320783018802652 0.022314395486347213 -0.09747855022556956 -9.7478550225569565e-05 -2.2314395486347217e-05 -9.7478550225569565e-05 -2.2314395486347217e-05
                 -9.7478550225569565e-05 -2.2314395486347217e-05 -9.7478550225569565e-05 -2.2314395486347217e-05 0.022314395486347213 -0.09747855022556956 -0.49453883559889067 -0.11320783018802652
                 -9.7478550225569565e-05 -2.2314395486347217e-05 -9.7478550225569565e-05 -2.2314395486347217e-05 -0.49453883559889067 -0.11320783018802652 0.022314395486347213 -0.09747855022556956
31.00225 0.012421109835402145 -0.099225581532470131 -0.50185200132990071 -0.062822094195489731 -9.9225581532470127e-05 -1.2421109835402152e-05 -9.9225581532470127e-05 -1.2421109835402152e-05
                 -0.50185200132990071 -0.062822094195489731 0.012421109835402145 -0.099225581532470131 -9.9225581532470127e-05 -1.2421109835402152e-05 -9.9225581532470127e-05 -1.2421109835402152e-05
                 -9.9225581532470127e-05 -1.2421109835402152e-05 -9.9225581532470127e-05 -1.2421109835402152e-05 0.012421109835402145 -0.099225581532470131 -0.50185200132990071 -0.062822094195489731
                 -9.9225581532470127e-05 -1.2421109835402152e-05 -9.9225581532470127e-05 -1.2421109835402152e-05 -0.50185200132990071 -0.062822094195489731 0.012421109835402145 -0.099225581532470131
31.202200000000001 0.0024024588925319404 -0.099971136790924287 -0.50406790068578555 -0.01211352045516016 -9.9971136790924286e-05 -2.4024588925319467e-06 -9.9971136790924286e-05 -2.4024588925319467e-06
                 -0.50406790068578555 -0.01211352045516016 0.0024024588925319404 -0.099971136790924287 -9.9971136790924286e-05 -2.4024588925319467e-06 -9.9971136790924286e-05 -2.4024588925319467e-06
                 -9.9971136790924286e-05 -2.4024588925319467e-06 -9.9971136790924286e-05 -2.4024588925319467e-06 0.0024024588925319404 -0.099971136790924287 -0.50406790068578555 -0.01211352045516016
                 -9.9971136790924286e-05 -2.4024588925319467e-06 -9.9971136790924286e-05 -2.4024588925319467e-06 -0.50406790068578555 -0.01211352045516016 0.0024024588925319404 -0.099971136790924287
31.402149999999999 -0.0076404398803948505 -0.099707691169909629 -0.501195538046182 0.038405807333744039 -9.9707691169909622e-05 7.6404398803948448e-06 -9.9707691169909622e-05 7.6404398803948448e-06
                 -0.501195538046182 0.038405807333744039 -0.0076404398803948505 -0.099707691169909629 -9.9707691169909622e-05 7.6404398803948448e-06 -9.9707691169909622e-05 7.6404398803948448e-06
                 -9.9707691169909622e-05 7.6404398803948448e-06 -9.9707691169909622e-05 7.6404398803948448e-06 -0.0076404398803948505 -0.099707691169909629 -0.501195538046182 0.038405807333744039
                 -9.9707691169909622e-05 7.6404398803948448e-06 -9.9707691169909622e-05 7.6404398803948448e-06 -0.501195538046182 0.038405807333744039 -0.0076404398803948505 -0.099707691169909629
31.6021 -0.017606224290052923 -0.09843790360551341 -0.4932950082236735 0.088228845168773495 -9.8437903605513418e-05 1.7606224290052917e-05 -9.8437903605513418e-05 1.7606224290052917e-05
                 -0.4932950082236735 0.088228845168773495 -0.017606224290052923 -0.09843790360551341 -9.8437903605513418e-05 1.7606224290052917e-05 -9.8437903605513418e-05 1.7606224290052917e-05
                 -9.8437903605513418e-05 1.7606224290052917e-05 -9.8437903605513418e-05 1.7606224290052917e-05 -0.017606224290052923 -0.09843790360551341 -0.4932950082236735 0.088228845168773495
                 -9.8437903605513418e-05 1.7606224290052917e-05 -9.8437903605513418e-05 1.7606224290052917e-05 -0.4932950082236735 0.088228845168773495 -0.017606224290052923 -0.09843790360551341
31.802050000000001 -0.027394310452366802 -0.096174589964498153 -0.48047658086528355 0.13685865077432649 -9.6174589964498157e-05 2.7394310452366796e-05 -9.6174589964498157e-05 2.7394310452366796e-05
                 -0.48047658086528355 0.13685865077432649 -0.027394310452366802 -0.096174589964498153 -9.6174589964498157e-05 2.7394310452366796e-05 -9.6174589964498157e-05 2.7394310452366796e-05
                 -9.6174589964498157e-05 2.7394310452366796e-05 -9.6174589964498157e-05 2.7394310452366796e-05 -0.027394310452366802 -0.096174589964498153 -0.48047658086528355 0.13685865077432649
                 -9.6174589964498157e-05 2.7394310452366796e-05 -9.6174589964498157e-05 2.7394310452366796e-05 -0.48047658086528355 0.13685865077432649 -0.027394310452366802 -0.096174589964498153
32.002000000000002 -0.036905907977798379 -0.092940593694759016 -0.46289928682247117 0.18381331346522245 -9.2940593694759019e-05 3.6905907977798369e-05 -9.2940593694759019e-05 3.6905907977798369e-05
                 -0.46289928682247117 0.18381331346522245 -0.036905907977798379 -0.092940593694759016 -9.2940593694759019e-05 3.6905907977798369e-05 -9.2940593694759019e-05 3.6905907977798369e-05
                 -9.2940593694759019e-05 3.6905907977798369e-05 -9.2940593694759019e-05 3.6905907977798369e-05 -0.036905907977798379 -0.092940593694759016 -0.46289928682247117 0.18381331346522245
                 -9.2940593694759019e-05 3.6905907977798369e-05 -9.2940593694759019e-05 3.6905907977798369e-05 -0.46289928682247117 0.18381331346522245 -0.036905907977798379 -0.092940593694759016
32.201949999999997 -0.046045017055038592 -0.088768555268187208 -0.44076902367994358 0.22863070319619239 -8.8768555268187198e-05 4.6045017055038585e-05 -8.8768555268187198e-05 4.6045017055038585e-05
                 -0.44076902367994358 0.22863070319619239 -0.046045017055038592 -0.088768555268187208 -8.8768555268187198e-05 4.6045017055038585e-05 -8.8768555268187198e-05 4.6045017055038585e-05
                 -8.8768555268187198e-05 4.6045017055038585e-05 -8.8768555268187198e-05 4.6045017055038585e-05 -0.046045017055038592 -0.088768555268187208 -0.44076902367994358 0.22863070319619239
                 -8.8768555268187198e-05 4.6045017055038585e-05 -8.8768555268187198e-05 4.6045017055038585e-05 -0.44076902367994358 0.22863070319619239 -0.046045017055038592 -0.088768555268187208
32.401899999999998 -0.054719397369607486 -0.083700582742935514 -0.41433620235016072 0.27087299225435935 -8.3700582742935519e-05 5.471939736960747e-05 -8.3700582742935519e-05 5.471939736960747e-05
                 -0.41433620235016072 0.27087299225435935 -0.054719397369607486 -0.083700582742935514 -8.3700582742935519e-05 5.471939736960747e-05 -8.3700582742935519e-05 5.471939736960747e-05
                 -8.3700582742935519e-05 5.471939736960747e-05 -8.3700582742935519e-05 5.471939736960747e-05 -0.054719397369607486 -0.083700582742935514 -0.41433620235016072 0.27087299225435935
                 -8.3700582742935519e-05 5.471939736960747e-05 -8.3700582742935519e-05 5.471939736960747e-05 -0.41433620235016072 0.27087299225435935 -0.054719397369607486 -0.083700582742935514
32.601849999999999 -0.062841499078148247 -0.077787826770074342 -0.38389296110933691 0.3101309056102961 -7.7787826770074351e-05 6.2841499078148237e-05 -7.7787826770074351e-05 6.2841499078148237e-05
                 -0.38389296110933691 0.3101309056102961 -0.062841499078148247 -0.077787826770074342 -7.7787826770074351e-05 6.2841499078148237e-05 -7.7787826770074351e-05 6.2841499078148237e-05
                 -7.7787826770074351e-05 6.2841499078148237e-05 -7.7787826770074351e-05 6.2841499078148237e-05 -0.062841499078148247 -0.077787826770074342 -0.38389296110933691 0.3101309056102961
                 -7.7787826770074351e-05 6.2841499078148237e-05 -7.7787826770074351e-05 6.2841499078148237e-05 -0.38389296110933691 0.3101309056102961 -0.062841499078148247 -0.077787826770074342
32.8018 -0.070329346442161544 -0.071089964334063491 -0.34976997762881751 0.34602765892706022 -7.1089964334063499e-05 7.0329346442161549e-05 -7.1089964334063499e-05 7.0329346442161549e-05
                 -0.34976997762881751 0.34602765892706022 -0.070329346442161544 -0.071089964334063491 -7.1089964334063499e-05 7.0329346442161549e-05 -7.1089964334063499e-05 7.0329346442161549e-05
                 -7.1089964334063499e-05 7.0329346442161549e-05 -7.1089964334063499e-05 7.0329346442161549e-05 -0.070329346442161544 -0.071089964334063491 -0.34976997762881751 0.34602765892706022
                 -7.1089964334063499e-05 7.0329346442161549e-05 -7.1089964334063499e-05 7.0329346442161549e-05 -0.34976997762881751 0.34602765892706022 -0.070329346442161544 -0.071089964334063491
33.001750000000001 -0.077107365202734646 -0.063674596437606951 -0.31233291340276936 0.3782225466034933 -6.3674596437606959e-05 7.7107365202734636e-05 -6.3674596437606959e-05 7.7107365202734636e-05
                 -0.31233291340276936 0.3782225466034933 -0.077107365202734646 -0.063674596437606951 -6.3674596437606959e-05 7.7107365202734636e-05 -6.3674596437606959e-05 7.7107365202734636e-05
                 -6.3674596437606959e-05 7.7107365202734636e-05 -6.3674596437606959e-05 7.7107365202734636e-05 -0.077107365202734646 -0.063674596437606951 -0.31233291340276936 0.3782225466034933
                 -6.3674596437606959e-05 7.7107365202734636e-05 -6.3674596437606959e-05 7.7107365202734636e-05 -0.31233291340276936 0.3782225466034933 -0.077107365202734646 -0.063674596437606951
33.201700000000002 -0.083107145345637817 -0.055616565810008727 -0.27197852845261072 0.40641414596181552 -5.5616565810008734e-05 8.3107145345637817e-05 -5.5616565810008734e-05 8.3107145345637817e-05
                 -0.27197852845261072 0.40641414596181552 -0.083107145345637817 -0.055616565810008727 -5.5616565810008734e-05 8.3107145345637817e-05 -5.5616565810008734e-05 8.3107145345637817e-05
                 -5.5616565810008734e-05 8.3107145345637817e-05 -5.5616565810008734e-05 8.3107145345637817e-05 -0.083107145345637817 -0.055616565810008727 -0.27197852845261072 0.40641414596181552
                 -5.5616565810008734e-05 8.3107145345637817e-05 -5.5616565810008734e-05 8.3107145345637817e-05 -0.27197852845261072 0.40641414596181552 -0.083107145345637817 -0.055616565810008727
33.401649999999997 -0.08826813155825608 -0.046997201525350411 -0.22913050726789427 0.43034310774063994 -4.6997201525350414e-05 8.8268131558256072e-05 -4.6997201525350414e-05 8.8268131558256072e-05
                 -0.22913050726789427 0.43034310774063994 -0.08826813155825608 -0.046997201525350411 -4.6997201525350414e-05 8.8268131558256072e-05 -4.6997201525350414e-05 8.8268131558256072e-05
                 -4.6997201525350414e-05 8.8268131558256072e-05 -4.6997201525350414e-05 8.8268131558256072e-05 -0.08826813155825608 -0.046997201525350411 -0.22913050726789427 0.43034310774063994
                 -4.6997201525350414e-05 8.8268131558256072e-05 -4.6997201525350414e-05 8.8268131558256072e-05 -0.22913050726789427 0.43034310774063994 -0.08826813155825608 -0.046997201525350411
33.601599999999998 -0.092538234409633838 -0.037903498154493093 -0.18423503959383855 0.44979450738062898 -3.7903498154493092e-05 9.2538234409633835e-05 -3.7903498154493092e-05 9.2538234409633835e-05
                 -0.18423503959383855 0.44979450738062898 -0.092538234409633838 -0.037903498154493093 -3.7903498154493092e-05 9.2538234409633835e-05 -3.7903498154493092e-05 9.2538234409633835e-05
                 -3.7903498154493092e-05 9.2538234409633835e-05 -3.7903498154493092e-05 9.2538234409633835e-05 -0.092538234409633838 -0.037903498154493093 -0.18423503959383855 0.44979450738062898
                 -3.7903498154493092e-05 9.2538234409633835e-05 -3.7903498154493092e-05 9.2538234409633835e-05 -0.18423503959383855 0.44979450738062898 -0.092538234409633838 -0.037903498154493093
33.801549999999999 -0.095874356085033904 -0.02842723773566689 -0.13775620187358834 0.46459973614599187 -2.8427237735666894e-05 9.5874356085033906e-05 -2.8427237735666894e-05 9.5874356085033906e-05
                 -0.13775620187358834 0.46459973614599187 -0.095874356085033904 -0.02842723773566689 -2.8427237735666894e-05 9.5874356085033906e-05 -2.8427237735666894e-05 9.5874356085033906e-05
                 -2.8427237735666894e-05 9.5874356085033906e-05 -2.8427237735666894e-05 9.5874356085033906e-05 -0.095874356085033904 -0.02842723773566689 -0.13775620187358834 0.46459973614599187
                 -2.8427237735666894e-05 9.5874356085033906e-05 -2.8427237735666894e-05 9.5874356085033906e-05 -0.13775620187358834 0.46459973614599187 -0.095874356085033904 -0.02842723773566689
34.0015 -0.098242825368817968 -0.018664063425522796 -0.090171186878928625 0.47463791586410631 -1.8664063425522802e-05 9.8242825368817968e-05 -1.8664063425522802e-05 9.8242825368817968e-05
                 -0.090171186878928625 0.47463791586410631 -0.098242825368817968 -0.018664063425522796 -1.8664063425522802e-05 9.8242825368817968e-05 -1.8664063425522802e-05 9.8242825368817968e-05
                 -1.8664063425522802e-05 9.8242825368817968e-05 -1.8664063425522802e-05 9.8242825368817968e-05 -0.098242825368817968 -0.018664063425522796 -0.090171186878928625 0.47463791586410631
                 -1.8664063425522802e-05 9.8242825368817968e-05 -1.8664063425522802e-05 9.8242825368817968e-05 -0.090171186878928625 0.47463791586410631 -0.098242825368817968 -0.018664063425522796
34.201450000000001 -0.099619737485397347 -0.0087125141802191705 -0.041965430302380591 0.4798368259389994 -8.7125141802191768e-06 9.9619737485397345e-05 -8.7125141802191768e-06 9.9619737485397345e-05
                 -0.041965430302380591 0.4798368259389994 -0.099619737485397347 -0.0087125141802191705 -8.7125141802191768e-06 9.9619737485397345e-05 -8.7125141802191768e-06 9.9619737485397345e-05
                 -8.7125141802191768e-06 9.9619737485397345e-05 -8.7125141802191768e-06 9.9619737485397345e-05 -0.099619737485397347 -0.0087125141802191705 -0.041965430302380591 0.4798368259389994
                 -8.7125141802191768e-06 9.9619737485397345e-05 -8.7125141802191768e-06 9.9619737485397345e-05 -0.041965430302380591 0.4798368259389994 -0.099619737485397347 -0.0087125141802191705
34.401400000000002 -0.09999119536826688 0.001326969790570026 0.0063723161734183867 0.48017333625276915 1.3269697905700196e-06 9.9991195368266878e-05 1.3269697905700196e-06 9.9991195368266878e-05
                 0.0063723161734183867 0.48017333625276915 -0.09999119536826688 0.001326969790570026 1.3269697905700196e-06 9.9991195368266878e-05 1.3269697905700196e-06 9.9991195368266878e-05
                 1.3269697905700196e-06 9.9991195368266878e-05 1.3269697905700196e-06 9.9991195368266878e-05 -0.09999119536826688 0.001326969790570026 0.0063723161734183867 0.48017333625276915
                 1.3269697905700196e-06 9.9991195368266878e-05 1.3269697905700196e-06 9.9991195368266878e-05 0.0063723161734183867 0.48017333625276915 -0.09999119536826688 0.001326969790570026
34.601349999999996 -0.099353449922012338 0.011353060758852123 0.054354915570805573 0.47567334456204013 1.1353060758852117e-05 9.9353449922012335e-05 1.1353060758852117e-05 9.9353449922012335e-05
                 0.054354915570805573 0.47567334456204013 -0.099353449922012338 0.011353060758852123 1.1353060758852117e-05 9.9353449922012335e-05 1.1353060758852117e-05 9.9353449922012335e-05
                 1.1353060758852117e-05 9.9353449922012335e-05 1.1353060758852117e-05 9.9353449922012335e-05 -0.099353449922012338 0.011353060758852123 0.054354915570805573 0.47567334456204013
                 1.1353060758852117e-05 9.9353449922012335e-05 1.1353060758852117e-05 9.9353449922012335e-05 0.054354915570805573 0.47567334456204013 -0.099353449922012338 0.011353060758852123
34.801299999999998 -0.097712937861637678 0.02126456617116218 0.10150173057618057 0.46641122197401363 2.1264566171162174e-05 9.7712937861637678e-05 2.1264566171162174e-05 9.7712937861637678e-05
                 0.10150173057618057 0.46641122197401363 -0.097712937861637678 0.02126456617116218 2.1264566171162174e-05 9.7712937861637678e-05 2.1264566171162174e-05 9.7712937861637678e-05
                 2.1264566171162174e-05 9.7712937861637678e-05 2.1264566171162174e-05 9.7712937861637678e-05 -0.097712937861637678 0.02126456617116218 0.10150173057618057 0.46641122197401363
                 2.1264566171162174e-05 9.7712937861637678e-05 2.1264566171162174e-05 9.7712937861637678e-05 0.10150173057618057 0.46641122197401363 -0.097712937861637678 0.02126456617116218
35.001249999999999 -0.095086216747303248 0.030961449977106505 0.14734341401510911 0.45250877499883663 3.0961449977106666e-05 9.5086216747303188e-05 3.0961449977106666e-05 9.5086216747303188e-05
                 0.14734341401510911 0.45250877499883663 -0.095086216747303248 0.030961449977106505 3.0961449977106666e-05 9.5086216747303188e-05 3.0961449977106666e-05 9.5086216747303188e-05
                 3.0961449977106666e-05 9.5086216747303188e-05 3.0961449977106666e-05 9.5086216747303188e-05 -0.095086216747303248 0.030961449977106505 0.14734341401510911 0.45250877499883663
                 3.0961449977106666e-05 9.5086216747303188e-05 3.0961449977106666e-05 9.5086216747303188e-05 0.14734341401510911 0.45250877499883663 -0.095086216747303248 0.030961449977106505
35.2012 -0.091499797870162991 0.040345842285411729 0.1914265573320417 0.43413373747302242 4.0345842285411882e-05 9.1499797870162923e-05 4.0345842285411882e-05 9.1499797870162923e-05
                 0.1914265573320417 0.43413373747302242 -0.091499797870162991 0.040345842285411729 4.0345842285411882e-05 9.1499797870162923e-05 4.0345842285411882e-05 9.1499797870162923e-05
                 4.0345842285411882e-05 9.1499797870162923e-05 4.0345842285411882e-05 9.1499797870162923e-05 -0.091499797870162991 0.040345842285411729 0.1914265573320417 0.43413373747302242
                 4.0345842285411882e-05 9.1499797870162923e-05 4.0345842285411882e-05 9.1499797870162923e-05 0.1914265573320417 0.43413373747302242 -0.091499797870162991 0.040345842285411729
35.401150000000001 -0.086989878675973256 0.049323027157094232 0.23331815126884078 0.41149781028513965 4.9323027157094378e-05 8.6989878675973172e-05 4.9323027157094378e-05 8.6989878675973172e-05
                 0.23331815126884078 0.41149781028513965 -0.086989878675973256 0.049323027157094232 4.9323027157094378e-05 8.6989878675973172e-05 4.9323027157094378e-05 8.6989878675973172e-05
                 4.9323027157094378e-05 8.6989878675973172e-05 4.9323027157094378e-05 8.6989878675973172e-05 -0.086989878675973256 0.049323027157094232 0.23331815126884078 0.41149781028513965
                 4.9323027157094378e-05 8.6989878675973172e-05 4.9323027157094378e-05 8.6989878675973172e-05 0.23331815126884078 0.41149781028513965 -0.086989878675973256 0.049323027157094232
35.601100000000002 -0.081601977427097974 0.057802398566040442 0.2726098150910779 0.38485427126439453 5.7802398566040292e-05 8.1601977427098074e-05 5.7802398566040292e-05 8.1601977427098074e-05
                 0.2726098150910779 0.38485427126439453 -0.081601977427097974 0.057802398566040442 5.7802398566040292e-05 8.1601977427098074e-05 5.7802398566040292e-05 8.1601977427098074e-05
                 5.7802398566040292e-05 8.1601977427098074e-05 5.7802398566040292e-05 8.1601977427098074e-05 -0.081601977427097974 0.057802398566040442 0.2726098150910779 0.38485427126439453
                 5.7802398566040292e-05 8.1601977427098074e-05 5.7802398566040292e-05 8.1601977427098074e-05 0.2726098150910779 0.38485427126439453 -0.081601977427097974 0.057802398566040442
35.801049999999996 -0.075390473790240109 0.065698374878554802 0.30892175329065497 0.35449518177193828 6.5698374878554651e-05 7.5390473790240217e-05 6.5698374878554651e-05 7.5390473790240217e-05
                 0.30892175329065497 0.35449518177193828 -0.075390473790240109 0.065698374878554802 6.5698374878554651e-05 7.5390473790240217e-05 6.5698374878554651e-05 7.5390473790240217e-05
                 6.5698374878554651e-05 7.5390473790240217e-05 6.5698374878554651e-05 7.5390473790240217e-05 -0.075390473790240109 0.065698374878554802 0.30892175329065497 0.35449518177193828
                 6.5698374878554651e-05 7.5390473790240217e-05 6.5698374878554651e-05 7.5390473790240217e-05 0.30892175329065497 0.35449518177193828 -0.075390473790240109 0.065698374878554802
36.000999999999998 -0.068418059986710716 0.072931262622107779 0.3419064016695279 0.32074822042331164 7.2931262622107651e-05 6.8418059986710851e-05 7.2931262622107651e-05 6.8418059986710851e-05
                 0.3419064016695279 0.32074822042331164 -0.068418059986710716 0.072931262622107779 7.2931262622107651e-05 6.8418059986710851e-05 7.2931262622107651e-05 6.8418059986710851e-05
                 7.2931262622107651e-05 6.8418059986710851e-05 7.2931262622107651e-05 6.8418059986710851e-05 -0.068418059986710716 0.072931262622107779 0.3419064016695279 0.32074822042331164
                 7.2931262622107651e-05 6.8418059986710851e-05 7.2931262622107651e-05 6.8418059986710851e-05 0.3419064016695279 0.32074822042331164 -0.068418059986710716 0.072931262622107779
36.200949999999999 -0.060755108044733233 0.079428060825332963 0.37125172805001261 0.28397317793107496 7.9428060825332847e-05 6.0755108044733374e-05 7.9428060825332847e-05 6.0755108044733374e-05
                 0.37125172805001261 0.28397317793107496 -0.060755108044733233 0.079428060825332963 7.9428060825332847e-05 6.0755108044733374e-05 7.9428060825332847e-05 6.0755108044733374e-05
                 7.9428060825332847e-05 6.0755108044733374e-05 7.9428060825332847e-05 6.0755108044733374e-05 -0.060755108044733233 0.079428060825332963 0.37125172805001261 0.28397317793107496
                 7.9428060825332847e-05 6.0755108044733374e-05 7.9428060825332847e-05 6.0755108044733374e-05 0.37125172805001261 0.28397317793107496 -0.060755108044733233 0.079428060825332963
36.4009 -0.052478959540056214 0.085123197811132201 0.39668415652660594 0.24455815025570726 8.5123197811132117e-05 5.2478959540056374e-05 8.5123197811132117e-05 5.2478959540056374e-05
                 0.39668415652660594 0.24455815025570726 -0.052478959540056214 0.085123197811132201 8.5123197811132117e-05 5.2478959540056374e-05 8.5123197811132117e-05 5.2478959540056374e-05
                 8.5123197811132117e-05 5.2478959540056374e-05 8.5123197811132117e-05 5.2478959540056374e-05 -0.052478959540056214 0.085123197811132201 0.39668415652660594 0.24455815025570726
                 8.5123197811132117e-05 5.2478959540056374e-05 8.5123197811132117e-05 5.2478959540056374e-05 0.39668415652660594 0.24455815025570726 -0.052478959540056214 0.085123197811132201
36.600850000000001 -0.043673144993467493 0.08995919300649359 0.41797108813393369 0.20291547006021871 8.9959193006493665e-05 4.367314499346734e-05 8.9959193006493665e-05 4.367314499346734e-05
                 0.41797108813393369 0.20291547006021871 -0.043673144993467493 0.08995919300649359 8.9959193006493665e-05 4.367314499346734e-05 8.9959193006493665e-05 4.367314499346734e-05
                 8.9959193006493665e-05 4.367314499346734e-05 8.9959193006493665e-05 4.367314499346734e-05 -0.043673144993467493 0.08995919300649359 0.41797108813393369 0.20291547006021871
                 8.9959193006493665e-05 4.367314499346734e-05 8.9959193006493665e-05 4.367314499346734e-05 0.41797108813393369 0.20291547006021871 -0.043673144993467493 0.08995919300649359
36.800800000000002 -0.034426540803766094 0.093887237089428865 0.43492299501385873 0.15947741885384062 9.3887237089428931e-05 3.4426540803765938e-05 9.3887237089428931e-05 3.4426540803765938e-05
                 0.43492299501385873 0.15947741885384062 -0.034426540803766094 0.093887237089428865 9.3887237089428931e-05 3.4426540803765938e-05 9.3887237089428931e-05 3.4426540803765938e-05
                 9.3887237089428931e-05 3.4426540803765938e-05 9.3887237089428931e-05 3.4426540803765938e-05 -0.034426540803766094 0.093887237089428865 0.43492299501385873 0.15947741885384062
                 9.3887237089428931e-05 3.4426540803765938e-05 9.3887237089428931e-05 3.4426540803765938e-05 0.43492299501385873 0.15947741885384062 -0.034426540803766094 0.093887237089428865
37.000749999999996 -0.024832472225210983 0.096867684617648039 0.4473950695783433 0.11469176416111578 9.6867684617647993e-05 2.4832472225211163e-05 9.6867684617647993e-05 2.4832472225211163e-05
                 0.4473950695783433 0.11469176416111578 -0.024832472225210983 0.096867684617648039 9.6867684617647993e-05 2.4832472225211163e-05 9.6867684617647993e-05 2.4832472225211163e-05
                 9.6867684617647993e-05 2.4832472225211163e-05 9.6867684617647993e-05 2.4832472225211163e-05 -0.024832472225210983 0.096867684617648039 0.4473950695783433 0.11469176416111578
                 9.6867684617647993e-05 2.4832472225211163e-05 9.6867684617647993e-05 2.4832472225211163e-05 0.4473950695783433 0.11469176416111578 -0.024832472225210983 0.096867684617648039
37.200699999999998 -0.014987771443012686 0.098870454166914867 0.45528841473798765 0.069017167547593336 9.8870454166914844e-05 1.4987771443012868e-05 9.8870454166914844e-05 1.4987771443012868e-05
                 0.45528841473798765 0.069017167547593336 -0.014987771443012686 0.098870454166914867 9.8870454166914844e-05 1.4987771443012868e-05 9.8870454166914844e-05 1.4987771443012868e-05
                 9.8870454166914844e-05 1.4987771443012868e-05 9.8870454166914844e-05 1.4987771443012868e-05 -0.014987771443012686 0.098870454166914867 0.45528841473798765 0.069017167547593336
                 9.8870454166914844e-05 1.4987771443012868e-05 9.8870454166914844e-05 1.4987771443012868e-05 0.45528841473798765 0.069017167547593336 -0.014987771443012686 0.098870454166914867
37.400649999999999 -0.0049918002536477202 0.099875331940513137 0.45855076595238425 0.022918510360044688 9.9875331940513123e-05 4.9918002536479042e-06 9.9875331940513123e-05 4.9918002536479042e-06
                 0.45855076595238425 0.022918510360044688 -0.0049918002536477202 0.099875331940513137 9.9875331940513123e-05 4.9918002536479042e-06 9.9875331940513123e-05 4.9918002536479042e-06
                 9.9875331940513123e-05 4.9918002536479042e-06 9.9875331940513123e-05 4.9918002536479042e-06 -0.0049918002536477202 0.099875331940513137 0.45855076595238425 0.022918510360044688
                 9.9875331940513123e-05 4.9918002536479042e-06 9.9875331940513123e-05 4.9918002536479042e-06 0.45855076595238425 0.022918510360044688 -0.0049918002536477202 0.099875331940513137
37.6006 0.0050545527859966613 0.099872175785518824 0.45717674061004576 -0.023137815410229183 9.987217578551884e-05 -5.0545527859964775e-06 9.987217578551884e-05 -5.0545527859964775e-06
                 0.45717674061004576 -0.023137815410229183 0.0050545527859966613 0.099872175785518824 9.987217578551884e-05 -5.0545527859964775e-06 9.987217578551884e-05 -5.0545527859964775e-06
                 9.987217578551884e-05 -5.0545527859964775e-06 9.987217578551884e-05 -5.0545527859964775e-06 0.0050545527859966613 0.099872175785518824 0.45717674061004576 -0.023137815410229183
                 9.987217578551884e-05 -5.0545527859964775e-06 9.987217578551884e-05 -5.0545527859964775e-06 0.45717674061004576 -0.023137815410229183 0.0050545527859966613 0.099872175785518824
37.800550000000001 0.015049890618951352 0.098861017556757941 0.45120761501454704 -0.068688603660266162 9.8861017556757955e-05 -1.504989061895117e-05 9.8861017556757955e-05 -1.504989061895117e-05
                 0.45120761501454704 -0.068688603660266162 0.015049890618951352 0.098861017556757941 9.8861017556757955e-05 -1.504989061895117e-05 9.8861017556757955e-05 -1.504989061895117e-05
                 9.8861017556757955e-05 -1.504989061895117e-05 9.8861017556757955e-05 -1.504989061895117e-05 0.015049890618951352 0.098861017556757941 0.45120761501454704 -0.068688603660266162
                 9.8861017556757955e-05 -1.504989061895117e-05 9.8861017556757955e-05 -1.504989061895117e-05 0.45120761501454704 -0.068688603660266162 0.015049890618951352 0.098861017556757941
38.000500000000002 0.024893331080745908 0.096852062795298122 0.44073063399186302 -0.11327847102828077 9.6852062795298177e-05 -2.4893331080745729e-05 9.6852062795298177e-05 -2.4893331080745729e-05
                 0.44073063399186302 -0.11327847102828077 0.024893331080745908 0.096852062795298122 9.6852062795298177e-05 -2.4893331080745729e-05 9.6852062795298177e-05 -2.4893331080745729e-05
                 9.6852062795298177e-05 -2.4893331080745729e-05 9.6852062795298177e-05 -2.4893331080745729e-05 0.024893331080745908 0.096852062795298122 0.44073063399186302 -0.11327847102828077
                 9.6852062795298177e-05 -2.4893331080745729e-05 9.6852062795298177e-05 -2.4893331080745729e-05 0.44073063399186302 -0.11327847102828077 0.024893331080745908 0.096852062795298122
38.200449999999996 0.034485525095218593 0.093865587724719701 0.42587786279430784 -0.15646438786451541 9.3865587724719637e-05 -3.448552509521875e-05 9.3865587724719637e-05 -3.448552509521875e-05
                 0.42587786279430784 -0.15646438786451541 0.034485525095218593 0.093865587724719701 9.3865587724719637e-05 -3.448552509521875e-05 9.3865587724719637e-05 -3.448552509521875e-05
                 9.3865587724719637e-05 -3.448552509521875e-05 9.3865587724719637e-05 -3.448552509521875e-05 0.034485525095218593 0.093865587724719701 0.42587786279430784 -0.15646438786451541
                 9.3865587724719637e-05 -3.448552509521875e-05 9.3865587724719637e-05 -3.448552509521875e-05 0.42587786279430784 -0.15646438786451541 0.034485525095218593 0.093865587724719701
38.400399999999998 0.043729659396989175 0.089931734604772953 0.40682459551273747 -0.1978200584507106 8.9931734604772876e-05 -4.372965939698933e-05 8.9931734604772876e-05 -4.372965939698933e-05
                 0.40682459551273747 -0.1978200584507106 0.043729659396989175 0.089931734604772953 8.9931734604772876e-05 -4.372965939698933e-05 8.9931734604772876e-05 -4.372965939698933e-05
                 8.9931734604772876e-05 -4.372965939698933e-05 8.9931734604772876e-05 -4.372965939698933e-05 0.043729659396989175 0.089931734604772953 0.40682459551273747 -0.1978200584507106
                 8.9931734604772876e-05 -4.372965939698933e-05 8.9931734604772876e-05 -4.372965939698933e-05 0.40682459551273747 -0.1978200584507106 0.043729659396989175 0.089931734604772953
38.600349999999999 0.052532433660184702 0.085090207507904775 0.38378733857602615 -0.23694010737358817 8.5090207507904875e-05 -5.2532433660184542e-05 8.5090207507904875e-05 -5.2532433660184542e-05
                 0.38378733857602615 -0.23694010737358817 0.052532433660184702 0.085090207507904775 8.5090207507904875e-05 -5.2532433660184542e-05 8.5090207507904875e-05 -5.2532433660184542e-05
                 8.5090207507904875e-05 -5.2532433660184542e-05 8.5090207507904875e-05 -5.2532433660184542e-05 0.052532433660184702 0.085090207507904775 0.38378733857602615 -0.23694010737358817
                 8.5090207507904875e-05 -5.2532433660184542e-05 8.5090207507904875e-05 -5.2532433660184542e-05 0.38378733857602615 -0.23694010737358817 0.052532433660184702 0.085090207507904775
38.8003 0.060805002171347822 0.079389871589154171 0.35702139207241079 -0.27344403115455107 7.9389871589154279e-05 -6.0805002171347681e-05 7.9389871589154279e-05 -6.0805002171347681e-05
                 0.35702139207241079 -0.27344403115455107 0.060805002171347822 0.079389871589154171 7.9389871589154279e-05 -6.0805002171347681e-05 7.9389871589154279e-05 -6.0805002171347681e-05
                 7.9389871589154279e-05 -6.0805002171347681e-05 7.9389871589154279e-05 -6.0805002171347681e-05 0.060805002171347822 0.079389871589154171 0.35702139207241079 -0.27344403115455107
                 7.9389871589154279e-05 -6.0805002171347681e-05 7.9389871589154279e-05 -6.0805002171347681e-05 0.35702139207241079 -0.27344403115455107 0.060805002171347822 0.079389871589154171
39.000250000000001 0.068463870542286448 0.072888259893957169 0.32681805553076904 -0.3069798768319244 7.2888259893957291e-05 -6.84638705422863e-05 7.2888259893957291e-05 -6.84638705422863e-05
                 0.32681805553076904 -0.3069798768319244 0.068463870542286448 0.072888259893957169 7.2888259893957291e-05 -6.84638705422863e-05 7.2888259893957291e-05 -6.84638705422863e-05
                 7.2888259893957291e-05 -6.84638705422863e-05 7.2888259893957291e-05 -6.84638705422863e-05 0.068463870542286448 0.072888259893957169 0.32681805553076904 -0.3069798768319244
                 7.2888259893957291e-05 -6.84638705422863e-05 7.2888259893957291e-05 -6.84638705422863e-05 0.32681805553076904 -0.3069798768319244 0.068463870542286448 0.072888259893957169
39.200200000000002 0.075431738412415711 0.065650992681610607 0.29350148841345153 -0.33722761215550456 6.565099268161075e-05 -7.543173841241558e-05 6.565099268161075e-05 -7.543173841241558e-05
                 0.29350148841345153 -0.33722761215550456 0.075431738412415711 0.065650992681610607 6.565099268161075e-05 -7.543173841241558e-05 6.565099268161075e-05 -7.543173841241558e-05
                 6.565099268161075e-05 -7.543173841241558e-05 6.565099268161075e-05 -7.543173841241558e-05 0.075431738412415711 0.065650992681610607 0.29350148841345153 -0.33722761215550456
                 6.565099268161075e-05 -7.543173841241558e-05 6.565099268161075e-05 -7.543173841241558e-05 0.29350148841345153 -0.33722761215550456 0.075431738412415711 0.065650992681610607
39.400149999999996 0.081638279635263114 0.057751115125117582 0.25742525886150547 -0.36390215535379594 5.7751115125117742e-05 -8.1638279635263004e-05 5.7751115125117742e-05 -8.1638279635263004e-05
                 0.25742525886150547 -0.36390215535379594 0.081638279635263114 0.057751115125117582 5.7751115125117742e-05 -8.1638279635263004e-05 5.7751115125117742e-05 -8.1638279635263004e-05
                 5.7751115125117742e-05 -8.1638279635263004e-05 5.7751115125117742e-05 -8.1638279635263004e-05 0.081638279635263114 0.057751115125117582 0.25742525886150547 -0.36390215535379594
                 5.7751115125117742e-05 -8.1638279635263004e-05 5.7751115125117742e-05 -8.1638279635263004e-05 0.25742525886150547 -0.36390215535379594 0.081638279635263114 0.057751115125117582
39.600099999999998 0.087020852074774821 0.049268360071958554 0.21896861716678467 -0.38675603603729208 4.9268360071958716e-05 -8.7020852074774728e-05 4.9268360071958716e-05 -8.7020852074774728e-05
                 0.21896861716678467 -0.38675603603729208 0.087020852074774821 0.049268360071958554 4.9268360071958716e-05 -8.7020852074774728e-05 4.9268360071958716e-05 -8.7020852074774728e-05
                 4.9268360071958716e-05 -8.7020852074774728e-05 4.9268360071958716e-05 -8.7020852074774728e-05 0.087020852074774821 0.049268360071958554 0.21896861716678467 -0.38675603603729208
                 4.9268360071958716e-05 -8.7020852074774728e-05 4.9268360071958716e-05 -8.7020852074774728e-05 0.21896861716678467 -0.38675603603729208 0.087020852074774821 0.049268360071958554
39.800049999999999 0.091525129847504508 0.040288343306686604 0.17853253299624419 -0.4055816626684981 4.0288343306686449e-05 -9.152512984750459e-05 4.0288343306686449e-05 -9.152512984750459e-05
                 0.17853253299624419 -0.4055816626684981 0.091525129847504508 0.040288343306686604 4.0288343306686449e-05 -9.152512984750459e-05 4.0288343306686449e-05 -9.152512984750459e-05
                 4.0288343306686449e-05 -9.152512984750459e-05 4.0288343306686449e-05 -9.152512984750459e-05 0.091525129847504508 0.040288343306686604 0.17853253299624419 -0.4055816626684981
                 4.0288343306686449e-05 -9.152512984750459e-05 4.0288343306686449e-05 -9.152512984750459e-05 0.17853253299624419 -0.4055816626684981 0.091525129847504508 0.040288343306686604
40 0.095105651629515287 0.030901699437494979 0.13653553753825307 -0.42021317612084907 3.090169943749516e-05 -9.5105651629515231e-05 3.090169943749516e-05 -9.5105651629515231e-05
                 0.13653553753825307 -0.42021317612084907 0.095105651629515287 0.030901699437494979 3.090169943749516e-05 -9.5105651629515231e-05 3.090169943749516e-05 -9.5105651629515231e-05
                 3.090169943749516e-05 -9.5105651629515231e-05 3.090169943749516e-05 -9.5105651629515231e-05 0.095105651629515287 0.030901699437494979 0.13653553753825307 -0.42021317612084907
                 3.090169943749516e-05 -9.5105651629515231e-05 3.090169943749516e-05 -9.5105651629515231e-05 0.13653553753825307 -0.42021317612084907 0.095105651629515287 0.030901699437494979
