! Generated by insertion_loss_tool
! Matrix convention: Sij means output port i due to input port j
# GHZ S RI R 50
0.01 0.00050265270788189223 0.099998736693296578 0.97722487545248993 -0.0049121093535640743 0.97722487545248993 -0.0049121093535640743 0.00050265270788189223 0.099998736693296578
0.20995 0.010533660231881656 0.099443662453266857 0.96078698355149172 -0.10177223354682868 0.96078698355149172 -0.10177223354682868 0.010533660231881656 0.099443662453266857
0.40989999999999999 0.020458352345462269 0.097884911091081439 0.93500891272722064 -0.19542074022953199 0.93500891272722064 -0.19542074022953199 0.020458352345462269 0.097884911091081439
0.60985 0.030176559905884068 0.095338214962556289 0.90036170783076852 -0.28498350870099792 0.90036170783076852 -0.28498350870099792 0.030176559905884068 0.095338214962556289
0.80979999999999996 0.039590197802883323 0.091829277672910908 0.85739543756140768 -0.36964741342356472 0.85739543756140768 -0.36964741342356472 0.039590197802883323 0.091829277672910908
1.0097499999999999 0.04860425492403328 0.087393514652287493 0.80673185391636204 -0.44866716757068315 0.80673185391636204 -0.44866716757068315 0.04860425492403328 0.087393514652287493
1.2097 0.057127753094484868 0.082075695710579114 0.74905649257853069 -0.52137132669265318 0.74905649257853069 -0.52137132669265318 0.057127753094484868 0.082075695710579114
1.4096500000000001 0.065074665312583421 0.07592949317923342 0.68511030668335215 -0.58716741075013501 0.68511030668335215 -0.58716741075013501 0.065074665312583421 0.07592949317923342
1.6095999999999999 0.072364784013680614 0.06901694020060116 0.61568092903871297 -0.64554611261715411 0.61568092903871297 -0.64554611261715411 0.072364784013680614 0.06901694020060116
1.80955 0.078924530598823178 0.061407804632273126 0.5415936594842683 -0.69608457110726796 0.5415936594842683 -0.69608457110726796 0.078924530598823178 0.061407804632273126
2.0095000000000001 0.084687698057808347 0.053178884885539734 0.46370227467546099 -0.73844869652602485 0.46370227467546099 -0.73844869652602485 0.084687698057808347 0.053178884885539734
2.2094499999999999 0.089596119191369339 0.044413234805021108 0.3828797571796837 -0.77239454659932161 0.3828797571796837 -0.77239454659932161 0.089596119191369339 0.044413234805021108
2.4094000000000002 0.093600253688176871 0.035199325412696922 0.3000090394039171 -0.79776876027356147 0.3000090394039171 -0.79776876027356147 0.093600253688176871 0.035199325412696922
2.6093500000000001 0.096659688131334048 0.025630151976787835 0.21597385557048332 -0.81450806623664151 0.21597385557048332 -0.81450806623664151 0.096659688131334048 0.025630151976787835
2.8092999999999999 0.098743543887838195 0.015802295417773126 0.13164979176462752 -0.82263789198083248 0.13164979176462752 -0.82263789198083248 0.098743543887838195 0.015802295417773126
3.0092500000000002 0.099830788764213377 0.0058149475246995876 0.047895620046793645 -0.82227010773747178 0.047895620046793645 -0.82227010773747178 0.099830788764213377 0.0058149475246995876
3.2092000000000001 0.099910449282797173 -0.0042310901798017957 -0.034455002186648286 -0.81359994758349807 -0.034455002186648286 -0.81359994758349807 0.099910449282797173 -0.0042310901798017957
3.4091499999999999 0.098981721436194159 -0.014234423821414904 -0.11460139193173295 -0.79690215738281733 -0.11460139193173295 -0.79690215738281733 0.098981721436194159 -0.014234423821414904
3.6091000000000002 0.097053978802059737 -0.024094090534596692 -0.19178318989332724 -0.7725264259205602 -0.19178318989332724 -0.7725264259205602 0.097053978802059737 -0.024094090534596692
3.80905 0.094146677936312637 -0.033710577472897511 -0.26528713661381348 -0.74089216156285953 -0.26528713661381348 -0.74089216156285953 0.094146677936312637 -0.033710577472897511
4.0090000000000003 0.090289161999634882 -0.042986826184352005 -0.33445321984620763 -0.70248268198470043 -0.33445321984620763 -0.70248268198470043 0.090289161999634882 -0.042986826184352005
4.2089499999999997 0.085520364599241616 -0.051829212214857957 -0.39868014521107953 -0.65783888891824538 -0.39868014521107953 -0.65783888891824538 0.085520364599241616 -0.051829212214857957
4.4089 0.079888416835022916 -0.060148490052482843 -0.45743009009712482 -0.60755250345727918 -0.45743009009712482 -0.60755250345727918 0.079888416835022916 -0.060148490052482843
4.6088500000000003 0.073450161516109821 -0.067860693875448852 -0.51023270891189143 -0.5522589401924648 -0.51023270891189143 -0.5522589401924648 0.073450161516109821 -0.067860693875448852
4.8087999999999997 0.066270579450839154 -0.074887985012617453 -0.55668836607455485 -0.49262990033829718 -0.55668836607455485 -0.49262990033829718 0.066270579450839154 -0.074887985012617453
5.00875 0.058422133600527726 -0.081159437563120718 -0.59647058147990761 -0.42936576504613844 -0.59647058147990761 -0.42936576504613844 0.058422133600527726 -0.081159437563120718
5.2087000000000003 0.049984037716460511 -0.086611754245942016 -0.62932768146642737 -0.36318787028729843 -0.62932768146642737 -0.36318787028729843 0.049984037716460511 -0.086611754245942016
5.4086499999999997 0.041041456841682512 -0.091189905254432158 -0.65508365650827083 -0.29483074405287901 -0.65508365650827083 -0.29483074405287901 0.041041456841682512 -0.091189905254432158
5.6086 0.031684647746867925 -0.094847683667851901 -0.67363823484116336 -0.22503438517812305 -0.67363823484116336 -0.22503438517812305 0.031684647746867925 -0.094847683667851901
5.8085500000000003 0.022008047975779384 -0.097548171814215948 -0.68496618894912653 -0.15453666089088369 -0.68496618894912653 -0.15453666089088369 0.022008047975779384 -0.097548171814215948
6.0084999999999997 0.012109322694510807 -0.099264113877474414 -0.68911589921094618 -0.084065897246245108 -0.68911589921094618 -0.084065897246245108 0.012109322694510807 -0.099264113877474414
6.20845 0.0020883789645906219 -0.099978190988336324 -0.68620720596550699 -0.01433373298838801 -0.68620720596550699 -0.01433373298838801 0.0020883789645906219 -0.099978190988336324
6.4084000000000003 -0.0079536426111917313 -0.099683196022265635 -0.67642858774255199 0.053971696871513722 -0.67642858774255199 0.053971696871513722 -0.0079536426111917313 -0.099683196022265635
6.6083499999999997 -0.017915388692993601 -0.098382106340426351 -0.66003370936512618 0.12019218629898018 -0.66003370936512618 0.12019218629898018 -0.017915388692993601 -0.098382106340426351
6.8083 -0.027696316155266704 -0.096088053739408805 -0.63733738901361847 0.18370543617800189 -0.63733738901361847 0.18370543617800189 -0.027696316155266704 -0.096088053739408805
7.0082500000000003 -0.037197706860674216 -0.092824191913031762 -0.60871103810748362 0.24393053461314343 -0.60871103810748362 0.24393053461314343 -0.037197706860674216 -0.092824191913031762
7.2081999999999997 -0.046323664014544276 -0.088623462763918318 -0.57457763197514977 0.30033289541836572 -0.57457763197514977 0.30033289541836572 -0.046323664014544276 -0.088623462763918318
7.40815 -0.054982080043733152 -0.083528263923444035 -0.53540627271840435 0.35242861709062495 -0.53540627271840435 0.35242861709062495 -0.054982080043733152 -0.083528263923444035
7.6081000000000003 -0.063085566231169982 -0.077590020835753531 -0.4917064084152788 0.39978823127315033 -0.4917064084152788 0.39978823127315033 -0.063085566231169982 -0.077590020835753531
7.8080499999999997 -0.070552334723356896 -0.070868667724766854 -0.44402177483316208 0.4420398165823049 -0.44402177483316208 0.4420398165823049 -0.070552334723356896 -0.070868667724766854
8.0079999999999991 -0.077307024008789069 -0.063432042682736542 -0.39292412713710617 0.47887146062990843 -0.39292412713710617 0.47887146062990843 -0.077307024008789069 -0.063432042682736542
8.2079500000000003 -0.083281459535807734 -0.055355202985678059 -0.33900682967982698 0.51003306004762783 -0.33900682967982698 0.51003306004762783 -0.083281459535807734 -0.055355202985678059
8.4078999999999997 -0.088415341793028068 -0.046719667546141923 -0.28287837185976722 0.53533745524056031 -0.28287837185976722 0.53533745524056031 -0.088415341793028068 -0.046719667546141923
8.6078499999999991 -0.092656854907599923 -0.037612594149193941 -0.22515587724855779 0.55466090339477636 -0.22515587724855779 0.55466090339477636 -0.092656854907599923 -0.037612594149193941
8.8078000000000003 -0.095963189618768166 -0.028125899775693321 -0.16645867174264911 0.5679428998724132 -0.16645867174264911 0.5679428998724132 -0.095963189618768166 -0.028125899775693321
9.0077499999999997 -0.098300975348399183 -0.018355332891381124 -0.10740197441541036 0.57518536448533175 -0.10740197441541036 0.57518536448533175 -0.098300975348399183 -0.018355332891381124
9.2077000000000009 -0.099646617007621036 -0.0083995070650897102 -0.048590772070695218 0.57645121518585907 -0.048590772070695218 0.57645121518585907 -0.099646617007621036 -0.0083995070650897102
9.4076500000000003 -0.099986533140213579 0.0016410943303092618 0.0093860647325841005 0.57186235739651747 0.0093860647325841005 0.57186235739651747 -0.099986533140213579 0.0016410943303092618
9.6075999999999997 -0.099317292999185819 0.011665132288743059 0.065961370157884086 0.56159712247071514 0.065961370157884086 0.56159712247071514 -0.099317292999185819 0.011665132288743059
9.8075500000000009 -0.097645651173037501 0.021571434977615229 0.12059492624770252 0.54588719358915649 0.12059492624770252 0.54588719358915649 -0.097645651173037501 0.021571434977615229
10.0075 -0.094988479412224616 0.031260018857214099 0.17277831554978099 0.52501406171390463 0.17277831554978099 0.52501406171390463 -0.094988479412224616 0.031260018857214099
10.20745 -0.091372596343899243 0.040633097806773877 0.22203934296912903 0.49930505801112218 0.22203934296912903 0.49930505801112218 -0.091372596343899243 0.040633097806773877
10.407400000000001 -0.086834496793599031 0.049596070072158341 0.26794599186299156 0.46912901238814042 0.26794599186299156 0.46912901238814042 -0.086834496793599031 0.049596070072158341
10.60735 -0.081419983445822436 0.058058473073979502 0.31010988489169911 0.43489159045045817 0.31010988489169911 0.43489159045045817 -0.081419983445822436 0.058058473073979502
10.8073 -0.075183704561108969 0.065934896439350563 0.34818922580836176 0.39703036325562141 0.34818922580836176 0.39703036325562141 -0.075183704561108969 0.065934896439350563
11.007250000000001 -0.068188602415412455 0.073145844042110872 0.38189120415324401 0.35600966571602877 0.38189120415324401 0.35600966571602877 -0.068188602415412455 0.073145844042110872
11.2072 -0.060505278028622447 0.079618536351022548 0.41097385065356951 0.31231530038002803 0.41097385065356951 0.31231530038002803 -0.060505278028622447 0.079618536351022548
11.40715 -0.052211278593982974 0.085287644987896677 0.43524733695610462 0.2664491436049064 0.43524733695610462 0.2664491436049064 -0.052211278593982974 0.085287644987896677
11.607100000000001 -0.043390314800323362 0.090095952081815756 0.45457471907965635 0.21892371083690246 0.45457471907965635 0.21892371083690246 -0.043390314800323362 0.090095952081815756
11.80705 -0.034131415946612273 0.093994927764637082 0.46887212961070063 0.17025673684849091 0.46887212961070063 0.17025673684849091 -0.034131415946612273 0.093994927764637082
12.007 -0.024528031376192055 0.096945219979164207 0.47810842912372453 0.12096582537322659 0.47810842912372453 0.12096582537322659 -0.024528031376192055 0.096945219979164207
12.206950000000001 -0.01467708729985198 0.098917051656387964 0.48230433253720634 0.071563220650120121 0.48230433253720634 0.071563220650120121 -0.01467708729985198 0.098917051656387964
12.4069 -0.004678008527148691 0.099890521253119535 0.48153103106890199 0.022550750973848583 0.48153103106890199 0.022550750973848583 -0.004678008527148691 0.099890521253119535
12.60685 0.0053682850204342554 0.099855803616712147 0.47590833508635072 -0.025585008520388891 0.47590833508635072 -0.025585008520388891 0.0053682850204342554 0.099855803616712147
12.806800000000001 0.015360396886376488 0.098813249149559884 0.46560236742070571 -0.07237730988881648 0.46560236742070571 -0.07237730988881648 0.015360396886376488 0.098813249149559884
13.00675 0.025197477465640963 0.096773380272513559 0.45082284058905048 -0.11738350292973386 0.45082284058905048 -0.11738350292973386 0.025197477465640963 0.096773380272513559
13.2067 0.034780241871864501 0.093756785222908562 0.43181995482201457 -0.16018896593030332 0.43181995482201457 -0.16018896593030332 0.034780241871864501 0.093756785222908562
13.406650000000001 0.0440119720119653 0.089793910259092655 0.40888095679443998 -0.2004106645399176 0.40888095679443998 -0.2004106645399176 0.0440119720119653 0.089793910259092655
13.6066 0.05279949275430651 0.084924752368717188 0.38232640148691371 -0.23770031118188245 0.38232640148691371 -0.23770031118188245 0.05279949275430651 0.084924752368717188
13.80655 0.061054112338026191 0.079198455582262961 0.35250616165020315 -0.27174710207427216 0.35250616165020315 -0.27174710207427216 0.061054112338026191 0.079198455582262961
14.006500000000001 0.068692517532055727 0.072672814966177127 0.31979523089330414 -0.30228001371668456 0.31979523089330414 -0.30228001371668456 0.068692517532055727 0.072672814966177127
14.20645 0.075637614509057177 0.065413693301779444 0.28458936746445201 -0.32906964556100182 0.28458936746445201 -0.32906964556100182 0.075637614509057177 0.065413693301779444
14.4064 0.081819306947404982 0.057494356337351296 0.24730062634371305 -0.35192960047031152 0.24730062634371305 -0.35192960047031152 0.081819306947404982 0.057494356337351296
14.606350000000001 0.087175203507887419 0.048994733322658413 0.2083528273214085 -0.37071739943092297 0.2083528273214085 -0.37071739943092297 0.087175203507887419 0.048994733322658413
14.8063 0.091651247544623032 0.040000610289272223 0.16817700630912108 -0.38533493176939526 0.16817700630912108 -0.38533493176939526 0.091651247544623032 0.040000610289272223
15.00625 0.095202262694567621 0.030602764218850199 0.1272068962346847 -0.39572844679290425 0.1272068962346847 -0.39572844679290425 0.095202262694567621 0.030602764218850199
15.206200000000001 0.097792408839019865 0.020896046838145974 0.085874482528886506 -0.40188809727272062 0.085874482528886506 -0.40188809727272062 0.097792408839019865 0.020896046838145974
15.40615 0.099395543835141265 0.010978427287936597 0.044605676443353212 -0.40384704948523997 0.044605676443353212 -0.40384704948523997 0.099395543835141265 0.010978427287936597
15.6061 0.099995487366563385 0.00095000332813177386 0.0038161472736382134 -0.40168017857417648 0.0038161472736382134 -0.40168017857417648 0.099995487366563385 0.00095000332813177386
15.806050000000001 0.099586184250057677 -0.0090880089411027667 -0.036092647970219584 -0.39550237176578007 -0.036092647970219584 -0.39550237176578007 0.099586184250057677 -0.0090880089411027667
16.006 0.098171765550027115 -0.019034296645542466 -0.074737201767658384 -0.38546646542455054 -0.074737201767658384 -0.38546646542455054 0.098171765550027115 -0.019034296645542466
16.205950000000001 0.095766506883995739 -0.028788472679834837 -0.11175542764836846 -0.37176084505198453 -0.11175542764836846 -0.37176084505198453 0.095766506883995739 -0.028788472679834837
16.405899999999999 0.092394684339915253 -0.038252088906717496 -0.14680983700988831 -0.35460674008161081 -0.14680983700988831 -0.35460674008161081 0.092394684339915253 -0.038252088906717496
16.60585 0.088090329459504624 -0.04732962978638152 -0.17959039572684002 -0.3342552476903633 -0.17959039572684002 -0.3342552476903633 0.088090329459504624 -0.04732962978638152
16.805800000000001 0.082896885760556135 -0.055929476407358826 -0.20981703889690045 -0.31098412181391422 -0.20981703889690045 -0.31098412181391422 0.082896885760556135 -0.055929476407358826
17.005749999999999 0.076866770264901407 -0.063964831189043794 -0.23724182601184782 -0.28509436511108893 -0.23724182601184782 -0.28509436511108893 0.076866770264901407 -0.063964831189043794
17.2057 0.070060844457502131 -0.071354593922898155 -0.26165072287542285 -0.25690666276338103 -0.26165072287542285 -0.25690666276338103 0.070060844457502131 -0.071354593922898155
17.405650000000001 0.06254780001623364 -0.078024180310524535 -0.28286500067048603 -0.22675769771775273 -0.28286500067048603 -0.22675769771775273 0.06254780001623364 -0.078024180310524535
17.605599999999999 0.054403465512142396 -0.083906274737168107 -0.30074224666372223 -0.19499638728647298 -0.30074224666372223 -0.19499638728647298 0.054403465512142396 -0.083906274737168107
17.80555 0.04571004107759747 -0.088941509682961606 -0.31517698508553077 -0.16198008091302751 -0.31517698508553077 -0.16198008091302751 0.04571004107759747 -0.088941509682961606
18.005500000000001 0.03655526876677178 -0.093079064914668552 -0.32610091069564939 -0.12807075840842375 -0.32610091069564939 -0.12807075840842375 0.03655526876677178 -0.093079064914668552
18.205449999999999 0.027031546981939093 -0.096277180410329954 -0.33348274140306028 -0.09363126707162546 -0.33348274140306028 -0.09363126707162546 0.027031546981939093 -0.096277180410329954
18.4054 0.017234997903612648 -0.098503577839906251 -0.3373277000153983 -0.059021634849090079 -0.3373277000153983 -0.059021634849090079 0.017234997903612648 -0.098503577839906251
18.605350000000001 0.0072644973368805313 -0.099735786347942612 -0.33767663871438885 -0.024595495082473492 -0.33767663871438885 -0.024595495082473492 0.0072644973368805313 -0.099735786347942612
18.805299999999999 -0.002779323234376076 -0.099961369350158757 -0.3346048231583672 0.0093033435354481671 -0.3346048231583672 0.0093033435354481671 -0.002779323234376076 -0.099961369350158757
19.00525 -0.01279509231319346 -0.099178050054923236 -0.3282203961721642 0.042344150401929556 -0.3282203961721642 0.042344150401929556 -0.01279509231319346 -0.099178050054923236
19.205200000000001 -0.022681721524131809 -0.09739373444273372 -0.31866254377318304 0.074212320940261936 -0.31866254377318304 0.074212320940261936 -0.022681721524131809 -0.09739373444273372
19.405149999999999 -0.032339425890356613 -0.094626431471772909 -0.3060993887782677 0.10461219285682501 -0.3060993887782677 0.10461219285682501 -0.032339425890356613 -0.094626431471772909
19.6051 -0.041670730955619732 -0.090904071314899637 -0.29072563942034235 0.13326960747686478 -0.29072563942034235 0.13326960747686478 -0.041670730955619732 -0.090904071314899637
19.805050000000001 -0.050581456586338183 -0.0862642234625942 -0.27276002226172169 0.15993419601698933 -0.27276002226172169 0.15993419601698933 -0.050581456586338183 -0.0862642234625942
20.004999999999999 -0.058981667524329075 -0.080753717537024303 -0.25244253021104751 0.18438137388637016 -0.25244253021104751 0.18438137388637016 -0.058981667524329075 -0.080753717537024303
20.20495 -0.066786581096350883 -0.074428170644323555 -0.23003151762521923 0.20641402944068019 -0.23003151762521923 0.20641402944068019 -0.066786581096350883 -0.074428170644323555
20.404900000000001 -0.073917422919004883 -0.067351426035481762 -0.20580067530242185 0.22586389700690032 -0.20580067530242185 0.22586389700690032 -0.073917422919004883 -0.067351426035481762
20.604849999999999 -0.0803022219624384 -0.059594908741395669 -0.18003591864690111 0.24259260741769823 -0.18003591864690111 0.24259260741769823 -0.0803022219624384 -0.059594908741395669
20.8048 -0.085876536948329737 -0.051236904685608792 -0.15303222241365377 0.25649241270584378 -0.15303222241365377 0.25649241270584378 -0.085876536948329737 -0.051236904685608792
21.004750000000001 -0.090584106750680585 -0.042361770550595562 -0.12509043522815319 0.26748658497789862 -0.12509043522815319 0.26748658497789862 -0.090584106750680585 -0.042361770550595562
21.204699999999999 -0.094377418234968327 -0.033059082372350689 -0.096514106532518337 0.27552949277902439 -0.096514106532518337 0.27552949277902439 -0.094377418234968327 -0.033059082372350689
21.40465 -0.097218185804503615 -0.023422731456450886 -0.06760635774804151 0.28060636144571771 -0.06760635774804151 0.28060636144571771 -0.097218185804503615 -0.023422731456450886
21.604600000000001 -0.099077737813969183 -0.013549976740436957 -0.038666828280623088 0.28273272699077706 -0.038666828280623088 0.28273272699077706 -0.099077737813969183 -0.013549976740436957
21.804549999999999 -0.099937305950097921 -0.0035404631669492398 -0.0099887255489784482 0.28195359594716246 -0.0099887255489784482 0.28195359594716246 -0.099937305950097921 -0.0035404631669492398
22.0045 -0.099788214658793339 0.006504784024899242 0.018143993493522022 0.27834232628920708 0.018143993493522022 0.27834232628920708 -0.099788214658793339 0.006504784024899242
22.204450000000001 -0.098631968706819839 0.01648437893937504 0.045459283820659599 0.27199924702797024 0.045459283820659599 0.27199924702797024 -0.098631968706819839 0.01648437893937504
22.404399999999999 -0.096480237994309367 0.026297598304054776 0.071699493418276319 0.26305003632214236 0.071699493418276319 0.26305003632214236 -0.096480237994309367 0.026297598304054776
22.60435 -0.093354739771370279 0.035845398061951216 0.096623642981310362 0.25164387993941018 0.096623642981310362 0.25164387993941018 -0.093354739771370279 0.035845398061951216
22.804300000000001 -0.089287019447577262 0.045031413015449134 0.12000948572093721 0.23795143363107268 0.12000948572093721 0.23795143363107268 -0.089287019447577262 0.045031413015449134
23.004249999999999 -0.084318132206615229 0.053762929432721165 0.14165533141920983 0.22216261443349503 0.14165533141920983 0.22216261443349503 -0.084318132206615229 0.053762929432721165
23.2042 -0.078498228639515388 0.061951820800186068 0.16138162160885494 0.2044842470752628 0.16138162160885494 0.2044842470752628 -0.078498228639515388 0.061951820800186068
23.404150000000001 -0.071886048578654535 0.069515437276531034 0.17903224556699102 0.18513759254333739 0.17903224556699102 0.18513759254333739 -0.071886048578654535 0.069515437276531034
23.604099999999999 -0.064548328241212746 0.076377439871107622 0.19447558966351622 0.16435578644280638 0.19447558966351622 0.16435578644280638 -0.064548328241212746 0.076377439871107622
23.80405 -0.056559126665742726 0.082468570927405255 0.2076053154680112 0.14238121507371398 0.2076053154680112 0.14238121507371398 -0.056559126665742726 0.082468570927405255
24.004000000000001 -0.047999078240075592 0.087727353135171604 0.21834086486401547 0.11946285714862122 0.21834086486401547 0.11946285714862122 -0.047999078240075592 0.087727353135171604
24.203949999999999 -0.038954578864738854 0.09210071001610598 0.22662769321813672 0.095853618792471146 0.22662769321813672 0.095853618792471146 -0.038954578864738854 0.09210071001610598
24.4039 -0.029516913965876287 0.095544501620611622 0.23243723437638469 0.071807688911257009 0.23243723437638469 0.071807688911257009 -0.029516913965876287 0.095544501620611622
24.603850000000001 -0.01978133715856897 0.098023970028860902 0.23576660388551829 0.047577941199658337 0.23576660388551829 0.047577941199658337 -0.01978133715856897 0.098023970028860902
24.803799999999999 -0.0098461088595338704 0.099514090159766866 0.23663804933875754 0.023413407994350027 0.23663804933875754 0.023413407994350027 -0.0098461088595338704 0.099514090159766866
25.00375 0.00018849544759254363 0.099999822347173389 0.23509815910044785 -0.00044315011454690973 0.23509815910044785 -0.00044315011454690973 0.00018849544759254363 0.099999822347173389
25.203700000000001 0.010221197284881319 0.09947626413403117 0.23121684285266708 -0.023757556508156124 0.23121684285266708 -0.023757556508156124 0.010221197284881319 0.09947626413403117
25.403649999999999 0.020150737375882882 0.097948699752514315 0.22508609940998744 -0.046306391893232803 0.22508609940998744 -0.046306391893232803 0.020150737375882882 0.097948699752514315
25.6036 0.029876897647599699 0.095432546790677517 0.21681858905055193 -0.067879009950021801 0.21681858905055193 -0.067879009950021801 0.029876897647599699 0.095432546790677517
25.803550000000001 0.039301512723674131 0.091953200583943143 0.20654602919864151 -0.088279378455830115 0.20654602919864151 -0.088279378455830115 0.039301512723674131 0.091953200583943143
26.003499999999999 0.048329460699867752 0.087545777901963606 0.19441743365479153 -0.10732773120949836 0.19441743365479153 -0.10732773120949836 0.048329460699867752 0.087545777901963606
26.20345 0.056869623202015655 0.082254762517806612 0.18059721669560019 -0.12486201832493508 0.18059721669560019 -0.12486201832493508 0.056869623202015655 0.082254762517806612
26.403400000000001 0.064835805036664793 0.076133556236705466 0.16526318425057812 -0.14073914477993346 0.16526318425057812 -0.14073914477993346 0.064835805036664793 0.076133556236705466
26.603349999999999 0.072147604152430864 0.069243939915808822 0.14860443500420237 -0.15483598947452526 0.14860443500420237 -0.15483598947452526 0.072147604152430864 0.069243939915808822
26.8033 0.078731223131628059 0.061655449914811214 0.13081919466675987 -0.16705019944610511 0.13081919466675987 -0.16705019944610511 0.078731223131628059 0.061655449914811214
27.003250000000001 0.08452021402184387 0.053444676270903803 0.11211260680918851 -0.17730075628165459 0.11211260680918851 -0.17730075628165459 0.08452021402184387 0.053444676270903803
27.203199999999999 0.08945614898993591 0.044694489681507604 0.092694503568839834 -0.18552831413652193 0.092694503568839834 -0.18552831413652193 0.08945614898993591 0.044694489681507604
27.40315 0.093489210029590972 0.035493205096793219 0.072777179211253568 -0.19169531109087665 0.072777179211253568 -0.19169531109087665 0.093489210029590972 0.035493205096793219
27.603100000000001 0.096578691770573127 0.025933690363784175 0.05257318898614028 -0.19578585782681657 0.05257318898614028 -0.19578585782681657 0.096578691770573127 0.025933690363784175
27.803049999999999 0.098693412314848628 0.01611242891842465 0.03229319495439912 -0.19780540976995742 0.03229319495439912 -0.19780540976995742 0.098693412314848628 0.01611242891842465
28.003 0.099812027953047833 0.0061285459857945606 0.012143879499741283 -0.19778023088937821 0.012143879499741283 -0.19778023088937821 0.099812027953047833 0.0061285459857945606
28.202950000000001 0.099923248584858196 -0.0039171918830502358 -0.0076740539124640602 -0.19575665927083644 -0.0076740539124640602 -0.19575665927083644 0.099923248584858196 -0.0039171918830502358
28.402899999999999 0.099025951669125201 -0.013923393840011844 -0.026967774489183718 -0.19180018635366736 -0.026967774489183718 -0.19180018635366736 0.099025951669125201 -0.013923393840011844
28.60285 0.097129193553572621 -0.023789068069864139 -0.045554095613867224 -0.1859943633370979 -0.045554095613867224 -0.1859943633370979 0.097129193553572621 -0.023789068069864139
28.802800000000001 0.094252118069792001 -0.033414641092760371 -0.063261108951435316 -0.17843954970411147 -0.063261108951435316 -0.17843954970411147 0.094252118069792001 -0.033414641092760371
29.002749999999999 0.0904237633160445 -0.042702962751593312 -0.07992966773491364 -0.16925152006981622 -0.07992966773491364 -0.16925152006981622 0.0904237633160445 -0.042702962751593312
29.2027 0.08568276857800261 -0.051560286740944816 -0.095414707641264099 -0.15855994662791512 -0.095414707641264099 -0.15855994662791512 0.08568276857800261 -0.051560286740944816
29.402650000000001 0.080076984345455474 -0.05989721678123016 -0.10958639556673894 -0.14650677533688933 -0.10958639556673894 -0.14650677533688933 0.080076984345455474 -0.05989721678123016
29.602599999999999 0.073662989361051479 -0.067629608888367942 -0.12233109856985235 -0.13324451465261514 -0.12233109856985235 -0.13324451465261514 0.073662989361051479 -0.067629608888367942
29.80255 0.066505519575465286 -0.074679420632443344 -0.13355216724190982 -0.11893445607415461 -0.13355216724190982 -0.11893445607415461 0.066505519575465286 -0.074679420632443344
30.002500000000001 0.058676814772500745 -0.080975498813861221 -0.14317052976996633 -0.10374484602440126 -0.14317052976996633 -0.10374484602440126 0.058676814772500745 -0.080975498813861221
30.202449999999999 0.050255889458593411 -0.086454297607034214 -0.15112509495459531 -0.087849028639145718 -0.15112509495459531 -0.087849028639145718 0.050255889458593411 -0.086454297607034214
30.4024 0.041327735375563571 -0.091060519923440983 -0.15737296441490853 -0.071423578890999553 -0.15737296441490853 -0.071423578890999553 0.041327735375563571 -0.091060519923440983
30.602350000000001 0.031982463685602924 -0.094747675520822638 -0.16188945613655586 -0.054646445134493293 -0.16188945613655586 -0.054646445134493293 0.031982463685602924 -0.094747675520822638
30.802299999999999 0.022314395486347213 -0.09747855022556956 -0.16466794337661522 -0.037695119633256238 -0.16466794337661522 -0.037695119633256238 0.022314395486347213 -0.09747855022556956
31.00225 0.012421109835402145 -0.099225581532470131 -0.16571951471498872 -0.020744854929077235 -0.16571951471498872 -0.020744854929077235 0.012421109835402145 -0.099225581532470131
31.202200000000001 0.0024024588925319404 -0.099971136790924287 -0.1650724627191151 -0.0039669430467823711 -0.1650724627191151 -0.0039669430467823711 0.0024024588925319404 -0.099971136790924287
31.402149999999999 -0.0076404398803948505 -0.099707691169909629 -0.16277161025271714 0.012472926489208102 -0.16277161025271714 0.012472926489208102 -0.0076404398803948505 -0.099707691169909629
31.6021 -0.017606224290052923 -0.09843790360551341 -0.15887748489670336 0.028416215007388512 -0.15887748489670336 0.028416215007388512 -0.017606224290052923 -0.09843790360551341
31.802050000000001 -0.027394310452366802 -0.096174589964498153 -0.15346535324954041 0.04371297587181748 -0.15346535324954041 0.04371297587181748 -0.027394310452366802 -0.096174589964498153
32.002000000000002 -0.036905907977798379 -0.092940593694759016 -0.14662412802539998 0.05822317634426178 -0.14662412802539998 0.05822317634426178 -0.036905907977798379 -0.092940593694759016
32.201949999999997 -0.046045017055038592 -0.088768555268187208 -0.13845516186286297 0.071817889455032979 -0.13845516186286297 0.071817889455032979 -0.046045017055038592 -0.088768555268187208
32.401899999999998 -0.054719397369607486 -0.083700582742935514 -0.12907094258841773 0.08438034676600295 -0.12907094258841773 0.08438034676600295 -0.054719397369607486 -0.083700582742935514
32.601849999999999 -0.062841499078148247 -0.077787826770074342 -0.11859370534267742 0.095806844520730711 -0.11859370534267742 0.095806844520730711 -0.062841499078148247 -0.077787826770074342
32.8018 -0.070329346442161544 -0.071089964334063491 -0.10715397747025371 0.10600749732758073 -0.10715397747025371 0.10600749732758073 -0.070329346442161544 -0.071089964334063491
33.001750000000001 -0.077107365202734646 -0.063674596437606951 -0.094889072395403534 0.11490683519463675 -0.094889072395403534 0.11490683519463675 -0.077107365202734646 -0.063674596437606951
33.201700000000002 -0.083107145345637817 -0.055616565810008727 -0.081941548855557808 0.12244424141269097 -0.081941548855557808 0.12244424141269097 -0.083107145345637817 -0.055616565810008727
33.401649999999997 -0.08826813155825608 -0.046997201525350411 -0.068457651845983319 0.12857423044755414 -0.068457651845983319 0.12857423044755414 -0.08826813155825608 -0.046997201525350411
33.601599999999998 -0.092538234409633838 -0.037903498154493093 -0.054585751445093755 0.13326656663887143 -0.054585751445093755 0.13326656663887143 -0.092538234409633838 -0.037903498154493093
33.801549999999999 -0.095874356085033904 -0.02842723773566689 -0.040474795346943523 0.13650622609360963 -0.040474795346943523 0.13650622609360963 -0.095874356085033904 -0.02842723773566689
34.0015 -0.098242825368817968 -0.018664063425522796 -0.026272790432183179 0.13829320569340187 -0.026272790432183179 0.13829320569340187 -0.098242825368817968 -0.018664063425522796
34.201450000000001 -0.099619737485397347 -0.0087125141802191705 -0.012125328069749081 0.1386421845918116 -0.012125328069749081 0.1386421845918116 -0.099619737485397347 -0.0087125141802191705
34.401400000000002 -0.09999119536826688 0.001326969790570026 0.0018258329315648137 0.13758204494729925 0.0018258329315648137 0.13758204494729925 -0.09999119536826688 0.001326969790570026
34.601349999999996 -0.099353449922012338 0.011353060758852123 0.015444112698877653 0.13515525990834193 0.015444112698877653 0.13515525990834193 -0.099353449922012338 0.011353060758852123
34.801299999999998 -0.097712937861637678 0.02126456617116218 0.028599373983340639 0.13141715802816079 0.028599373983340639 0.13141715802816079 -0.097712937861637678 0.02126456617116218
35.001249999999999 -0.095086216747303248 0.030961449977106505 0.041169092252139348 0.12643507432859774 0.041169092252139348 0.12643507432859774 -0.095086216747303248 0.030961449977106505
35.2012 -0.091499797870162991 0.040345842285411729 0.053039422467726596 0.12028739914798922 0.053039422467726596 0.12028739914798922 -0.091499797870162991 0.040345842285411729
35.401150000000001 -0.086989878675973256 0.049323027157094232 0.064106154100805071 0.11306253669002884 0.064106154100805071 0.11306253669002884 -0.086989878675973256 0.049323027157094232
35.601100000000002 -0.081601977427097974 0.057802398566040442 0.074275547243731754 0.1048577858346746 0.074275547243731754 0.1048577858346746 -0.081601977427097974 0.057802398566040442
35.801049999999996 -0.075390473790240109 0.065698374878554802 0.083465044053488549 0.095778156274756943 0.083465044053488549 0.095778156274756943 -0.075390473790240109 0.065698374878554802
36.000999999999998 -0.068418059986710716 0.072931262622107779 0.091603851143467266 0.085935133401182195 0.091603851143467266 0.085935133401182195 -0.068418059986710716 0.072931262622107779
36.200949999999999 -0.060755108044733233 0.079428060825332963 0.098633389946377867 0.075445405575094424 0.098633389946377867 0.075445405575094424 -0.060755108044733233 0.079428060825332963
36.4009 -0.052478959540056214 0.085123197811132201 0.10450761347209857 0.064429567498142951 0.10450761347209857 0.064429567498142951 -0.052478959540056214 0.085123197811132201
36.600850000000001 -0.043673144993467493 0.08995919300649359 0.10919318927016101 0.053010813324555164 0.10919318927016101 0.053010813324555164 -0.043673144993467493 0.08995919300649359
36.800800000000002 -0.034426540803766094 0.093887237089428865 0.11266954976311858 0.041313632954895714 0.11266954976311858 0.041313632954895714 -0.034426540803766094 0.093887237089428865
37.000749999999996 -0.024832472225210983 0.096867684617648039 0.11492881243123622 0.029462524616338588 0.11492881243123622 0.029462524616338588 -0.024832472225210983 0.096867684617648039
37.200699999999998 -0.014987771443012686 0.098870454166914867 0.11597557358845509 0.017580736374302464 0.11597557358845509 0.017580736374302464 -0.014987771443012686 0.098870454166914867
37.400649999999999 -0.0049918002536477202 0.099875331940513137 0.11582658068289454 0.0057890486429263109 0.11582658068289454 0.0057890486429263109 -0.0049918002536477202 0.099875331940513137
37.6006 0.0050545527859966613 0.099872175785518824 0.11451028917172899 -0.0057953909245076147 0.11451028917172899 -0.0057953909245076147 0.0050545527859966613 0.099872175785518824
37.800550000000001 0.015049890618951352 0.098861017556757941 0.11206631105052417 -0.01706016956998695 0.11206631105052417 -0.01706016956998695 0.015049890618951352 0.098861017556757941
38.000500000000002 0.024893331080745908 0.096852062795298122 0.10854476305259951 -0.027898638870091579 0.10854476305259951 -0.027898638870091579 0.024893331080745908 0.096852062795298122
38.200449999999996 0.034485525095218593 0.093865587724719701 0.10400552336735919 -0.03821086271408778 0.10400552336735919 -0.03821086271408778 0.034485525095218593 0.093865587724719701
38.400399999999998 0.043729659396989175 0.089931734604772953 0.098517406451698653 -0.047904476075555417 0.098517406451698653 -0.047904476075555417 0.043729659396989175 0.089931734604772953
38.600349999999999 0.052532433660184702 0.085090207507904775 0.092157266120646231 -0.05689544790846901 0.092157266120646231 -0.05689544790846901 0.052532433660184702 0.085090207507904775
38.8003 0.060805002171347822 0.079389871589154171 0.085009037598702611 -0.065108742617987062 0.085009037598702611 -0.065108742617987062 0.060805002171347822 0.079389871589154171
39.000250000000001 0.068463870542286448 0.072888259893957169 0.077162729589535184 -0.072478875706365298 0.077162729589535184 -0.072478875706365298 0.068463870542286448 0.072888259893957169
39.200200000000002 0.075431738412415711 0.065650992681610607 0.068713377677624185 -0.078950360363155669 0.068713377677624185 -0.078950360363155669 0.075431738412415711 0.065650992681610607
39.400149999999996 0.081638279635263114 0.057751115125117582 0.05975997051129929 -0.084478042943877715 0.05975997051129929 -0.084478042943877715 0.081638279635263114 0.057751115125117582
39.600099999999998 0.087020852074774821 0.049268360071958554 0.050404360233654195 -0.089027326450691432 0.050404360233654195 -0.089027326450691432 0.087020852074774821 0.049268360071958554
39.800049999999999 0.091525129847504508 0.040288343306686604 0.040750168528606849 -0.092574282280538531 0.040750168528606849 -0.092574282280538531 0.091525129847504508 0.040288343306686604
40 0.095105651629515287 0.030901699437494979 0.030901699437495156 -0.095105651629515231 0.030901699437495156 -0.095105651629515231 0.095105651629515287 0.030901699437494979
