! Generated by insertion_loss_tool
! Matrix convention: Sij means output port i due to input port j
# GHZ S RI R 50
0.01 0.00050265270788189223 0.099998736693296578 0.97722487545248971 -0.0049121093535640734 0.97722487545248971 -0.0049121093535640734 0.00050265270788189223 0.099998736693296578
0.20995 0.010533660231881656 0.099443662453266857 0.94980210982519453 -0.10060865082402505 0.94980210982519453 -0.10060865082402505 0.010533660231881656 0.099443662453266857
0.40989999999999999 0.020458352345462269 0.097884911091081439 0.91984122611236985 -0.19225063082683325 0.91984122611236985 -0.19225063082683325 0.020458352345462269 0.097884911091081439
0.60985 0.030176559905884068 0.095338214962556289 0.88298054206322318 -0.27948200240339804 0.88298054206322318 -0.27948200240339804 0.030176559905884068 0.095338214962556289
0.80979999999999996 0.039590197802883323 0.091829277672910908 0.83888272083263826 -0.36166605785011302 0.83888272083263826 -0.36166605785011302 0.039590197802883323 0.091829277672910908
1.0097499999999999 0.048604254924033301 0.087393514652287521 0.78784359815378979 -0.43816238810498653 0.78784359815378979 -0.43816238810498653 0.048604254924033301 0.087393514652287521
1.2097 0.057127753094484868 0.082075695710579114 0.73038427399455141 -0.50837476438810314 0.73038427399455141 -0.50837476438810314 0.057127753094484868 0.082075695710579114
1.4096500000000001 0.065074665312583449 0.075929493179233462 0.66714417948092863 -0.57176970867537968 0.66714417948092863 -0.57176970867537968 0.065074665312583449 0.075929493179233462
1.6095999999999999 0.072364784013680614 0.06901694020060116 0.5988381147466616 -0.62788629439159616 0.5988381147466616 -0.62788629439159616 0.072364784013680614 0.06901694020060116
1.80955 0.078924530598823178 0.061407804632273126 0.5262328863975998 -0.67634210005232331 0.5262328863975998 -0.67634210005232331 0.078924530598823178 0.061407804632273126
2.0095000000000001 0.084687698057808347 0.053178884885539734 0.45013136644594792 -0.7168369425190555 0.45013136644594792 -0.7168369425190555 0.084687698057808347 0.053178884885539734
2.2094499999999999 0.089596119191369339 0.044413234805021108 0.37135982239713022 -0.74915504480699158 0.37135982239713022 -0.74915504480699158 0.089596119191369339 0.044413234805021108
2.4094000000000002 0.093600253688176871 0.035199325412696922 0.29075690133413684 -0.77316594586345666 0.29075690133413684 -0.77316594586345666 0.093600253688176871 0.035199325412696922
2.6093500000000001 0.09665968813133409 0.025630151976787842 0.20916358808777394 -0.78882431954774834 0.20916358808777394 -0.78882431954774834 0.09665968813133409 0.025630151976787842
2.8092999999999999 0.098743543887838237 0.015802295417773133 0.12741384636103686 -0.7961688094957966 0.12741384636103686 -0.7961688094957966 0.098743543887838237 0.015802295417773133
3.0092500000000002 0.099830788764213377 0.0058149475246995867 0.046325826829417813 -0.79531995996370697 0.046325826829417813 -0.79531995996370697 0.099830788764213377 0.0058149475246995867
3.2092000000000001 0.099910449282797173 -0.0042310901798017957 -0.033306390415267124 -0.78647731174887781 -0.033306390415267124 -0.78647731174887781 0.099910449282797173 -0.0042310901798017957
3.4091499999999999 0.098981721436194159 -0.014234423821414903 -0.11072051113437054 -0.76991572879034487 -0.11072051113437054 -0.76991572879034487 0.098981721436194159 -0.014234423821414903
3.6091000000000002 0.097053978802059765 -0.024094090534596699 -0.18519317274543537 -0.74598102120157628 -0.18519317274543537 -0.74598102120157628 0.097053978802059765 -0.024094090534596699
3.80905 0.094146677936312637 -0.033710577472897511 -0.25604648554429515 -0.71508493233745607 -0.25604648554429515 -0.71508493233745607 0.094146677936312637 -0.033710577472897511
4.0090000000000003 0.090289161999634909 -0.042986826184352019 -0.32265393260539693 -0.67769955999758369 -0.32265393260539693 -0.67769955999758369 0.090289161999634909 -0.042986826184352019
4.2089499999999997 0.085520364599241616 -0.051829212214857957 -0.38444559367557551 -0.63435128443418543 -0.38444559367557551 -0.63435128443418543 0.085520364599241616 -0.051829212214857957
4.4089 0.079888416835022916 -0.060148490052482843 -0.44091266265883783 -0.5856142781239293 -0.44091266265883783 -0.5856142781239293 0.079888416835022916 -0.060148490052482843
4.6088500000000003 0.073450161516109821 -0.067860693875448838 -0.49161123394579592 -0.53210367407570103 -0.49161123394579592 -0.53210367407570103 0.073450161516109821 -0.067860693875448838
4.8087999999999997 0.066270579450839154 -0.074887985012617453 -0.53616533934313404 -0.47446847065972902 -0.53616533934313404 -0.47446847065972902 0.066270579450839154 -0.074887985012617453
5 0.058778525229247307 -0.080901699437494756 -0.57274017066286975 -0.41612009148362339 -0.57274017066286975 -0.41612009148362339 0.058778525229247307 -0.080901699437494756
5.00875 0.058422133600527726 -0.081159437563120718 -0.57426804843578272 -0.41338340500618398 -0.57426804843578272 -0.41338340500618398 0.058422133600527726 -0.081159437563120718
5.2087000000000003 0.049984037716460532 -0.086611754245942044 -0.60503122399590037 -0.34916627405990069 -0.60503122399590037 -0.34916627405990069 0.049984037716460532 -0.086611754245942044
5.4086499999999997 0.041041456841682533 -0.091189905254432185 -0.62781571562083716 -0.28255837666779759 -0.62781571562083716 -0.28255837666779759 0.041041456841682533 -0.091189905254432185
5.6086 0.031684647746867939 -0.094847683667851929 -0.64269466049452217 -0.21469743001709093 -0.64269466049452217 -0.21469743001709093 0.031684647746867939 -0.094847683667851929
5.8085500000000003 0.022008047975779384 -0.097548171814215948 -0.64986351782484975 -0.14661707351355771 -0.64986351782484975 -0.14661707351355771 0.022008047975779384 -0.097548171814215948
6.0084999999999997 0.012109322694510812 -0.099264113877474455 -0.64961665791587453 -0.079247347617919545 -0.64961665791587453 -0.079247347617919545 0.012109322694510812 -0.099264113877474455
6.20845 0.0020883789645906219 -0.099978190988336324 -0.64232739099297786 -0.013417156266476235 -0.64232739099297786 -0.013417156266476235 0.0020883789645906219 -0.099978190988336324
6.4084000000000003 -0.0079536426111917313 -0.099683196022265635 -0.62843102354169522 0.050142009551134667 -0.62843102354169522 0.050142009551134667 -0.0079536426111917313 -0.099683196022265635
6.6083499999999997 -0.017915388692993608 -0.098382106340426392 -0.60841052945685026 0.11079160149725946 -0.60841052945685026 0.11079160149725946 -0.017915388692993608 -0.098382106340426392
6.8083 -0.027696316155266704 -0.096088053739408805 -0.58278444879468161 0.16798115599223987 -0.58278444879468161 0.16798115599223987 -0.027696316155266704 -0.096088053739408805
7.0082500000000003 -0.037197706860674216 -0.092824191913031762 -0.55209666516759259 0.22124329322361447 -0.55209666516759259 0.22124329322361447 -0.037197706860674216 -0.092824191913031762
7.2081999999999997 -0.046323664014544276 -0.088623462763918318 -0.51690775576099457 0.27018873397184984 -0.51690775576099457 0.27018873397184984 -0.046323664014544276 -0.088623462763918318
7.40815 -0.054982080043733152 -0.083528263923444035 -0.47778765086710984 0.31450143496289634 -0.47778765086710984 0.31450143496289634 -0.054982080043733152 -0.083528263923444035
7.6081000000000003 -0.063085566231170009 -0.077590020835753559 -0.4353093801323496 0.35393390072057457 -0.4353093801323496 0.35393390072057457 -0.063085566231170009 -0.077590020835753559
7.8080499999999997 -0.070552334723356896 -0.070868667724766854 -0.39004371914005276 0.38830270009287904 -0.39004371914005276 0.38830270009287904 -0.070552334723356896 -0.070868667724766854
8.0079999999999991 -0.077307024008789069 -0.063432042682736542 -0.34255458203971484 0.41748419533826781 -0.34255458203971484 0.41748419533826781 -0.077307024008789069 -0.063432042682736542
8.2079500000000003 -0.083281459535807734 -0.055355202985678059 -0.29339503369518827 0.44141047830706376 -0.29339503369518827 0.44141047830706376 -0.083281459535807734 -0.055355202985678059
8.4078999999999997 -0.088415341793028068 -0.046719667546141923 -0.24310381852036941 0.46006549991907481 -0.24310381852036941 0.46006549991907481 -0.088415341793028068 -0.046719667546141923
8.6078499999999991 -0.092656854907599964 -0.037612594149193955 -0.19220232318662375 0.47348137439725946 -0.19220232318662375 0.47348137439725946 -0.092656854907599964 -0.037612594149193955
8.8078000000000003 -0.095963189618768166 -0.028125899775693321 -0.14119190715016169 0.48173483751783452 -0.14119190715016169 0.48173483751783452 -0.095963189618768166 -0.028125899775693321
9.0077499999999997 -0.098300975348399183 -0.018355332891381124 -0.090551548885538749 0.48494383770813654 -0.090551548885538749 0.48494383770813654 -0.098300975348399183 -0.018355332891381124
9.2077000000000009 -0.099646617007621036 -0.0083995070650897102 -0.040735767221543449 0.48326423960135451 -0.040735767221543449 0.48326423960135451 -0.099646617007621036 -0.0083995070650897102
9.4076500000000003 -0.099986533140213579 0.0016410943303092175 0.0078272133829001729 0.47688662123239928 0.0078272133829001729 0.47688662123239928 -0.099986533140213579 0.0016410943303092175
9.6075999999999997 -0.099317292999185833 0.011665132288743016 0.054737077096842945 0.46603314813602598 0.054737077096842945 0.46603314813602598 -0.099317292999185833 0.011665132288743016
9.8075500000000009 -0.097645651173037515 0.021571434977615184 0.099622827774907025 0.45095450997463249 0.099622827774907025 0.45095450997463249 -0.097645651173037515 0.021571434977615184
10.0075 -0.094988479412224616 0.031260018857214099 0.14214400911756853 0.43192690782779952 0.14214400911756853 0.43192690782779952 -0.094988479412224616 0.031260018857214099
10.20745 -0.091372596343899284 0.040633097806773891 0.18199174232334814 0.40924908281204131 0.18199174232334814 0.40924908281204131 -0.091372596343899284 0.040633097806773891
10.407400000000001 -0.086834496793599059 0.049596070072158306 0.21888958658955704 0.38323937919293105 0.21888958658955704 0.38323937919293105 -0.086834496793599059 0.049596070072158306
10.60735 -0.081419983445822491 0.058058473073979482 0.25259422552684452 0.35423283755154933 0.25259422552684452 0.35423283755154933 -0.081419983445822491 0.058058473073979482
10.8073 -0.075183704561108997 0.065934896439350535 0.2828959808850442 0.32257831583841873 0.2828959808850442 0.32257831583841873 -0.075183704561108997 0.065934896439350535
11.007250000000001 -0.068188602415412483 0.073145844042110844 0.30961915384500405 0.28863563826782385 0.30961915384500405 0.28863563826782385 -0.068188602415412483 0.073145844042110844
11.2072 -0.060505278028622447 0.079618536351022548 0.33262219343056521 0.25277277395903891 0.33262219343056521 0.25277277395903891 -0.060505278028622447 0.079618536351022548
11.40715 -0.052211278593982995 0.085287644987896705 0.35179769126667509 0.21536304900963038 0.35179769126667509 0.21536304900963038 -0.052211278593982995 0.085287644987896705
11.607100000000001 -0.043390314800323383 0.090095952081815797 0.36707220189494305 0.1767823972846839 0.36707220189494305 0.1767823972846839 -0.043390314800323383 0.090095952081815797
11.80705 -0.034131415946612273 0.093994927764637082 0.37840588810634279 0.13740665662242121 0.37840588810634279 0.13740665662242121 -0.034131415946612273 0.093994927764637082
12 -0.024868988716485532 0.096858316112863108 0.38559990172268144 0.099005227324468703 0.38559990172268144 0.099005227324468703 -0.024868988716485532 0.096858316112863108
12.007 -0.024528031376192055 0.096945219979164207 0.38579193476948465 0.097608904108335448 0.38579193476948465 0.097608904108335448 -0.024528031376192055 0.096945219979164207
12.206950000000001 -0.01467708729985198 0.098917051656387964 0.38920603565080764 0.057749506957805403 0.38920603565080764 0.057749506957805403 -0.01467708729985198 0.098917051656387964
12.4069 -0.004678008527148691 0.099890521253119535 0.38866091210121334 0.018201517402954302 0.38866091210121334 0.018201517402954302 -0.004678008527148691 0.099890521253119535
12.60685 0.0053682850204342554 0.099855803616712147 0.38424741725843409 -0.02065728359792407 0.38424741725843409 -0.02065728359792407 0.0053682850204342554 0.099855803616712147
12.806800000000001 0.015360396886376488 0.098813249149559884 0.37609136330919379 -0.058462935443241514 0.37609136330919379 -0.058462935443241514 0.015360396886376488 0.098813249149559884
13.00675 0.025197477465640963 0.096773380272513559 0.36435180342734302 -0.094868509610527174 0.36435180342734302 -0.094868509610527174 0.025197477465640963 0.096773380272513559
13.2067 0.034780241871864515 0.093756785222908604 0.34921901285608359 -0.12954712242437935 0.34921901285608359 -0.12954712242437935 0.034780241871864515 0.093756785222908604
13.406650000000001 0.0440119720119653 0.089793910259092655 0.33091219231718094 -0.16219472016151676 0.33091219231718094 -0.16219472016151676 0.0440119720119653 0.089793910259092655
13.6066 0.05279949275430651 0.084924752368717188 0.30967691959794558 -0.19253261053382456 0.30967691959794558 -0.19253261053382456 0.05279949275430651 0.084924752368717188
13.80655 0.061054112338026191 0.079198455582262961 0.28578237751936197 -0.22030971756983364 0.28578237751936197 -0.22030971756983364 0.061054112338026191 0.079198455582262961
14.006500000000001 0.068692517532055727 0.072672814966177127 0.25951838850691344 -0.24530454009107713 0.25951838850691344 -0.24530454009107713 0.068692517532055727 0.072672814966177127
14.20645 0.075637614509057177 0.065413693301779444 0.23119228765374936 -0.26732679731669712 0.23119228765374936 -0.26732679731669712 0.075637614509057177 0.065413693301779444
14.4064 0.081819306947405024 0.057494356337351324 0.20112566747209995 -0.28621874859064805 0.20112566747209995 -0.28621874859064805 0.081819306947405024 0.057494356337351324
14.606350000000001 0.087175203507887419 0.048994733322658413 0.16965102846536528 -0.30185617777311319 0.16965102846536528 -0.30185617777311319 0.087175203507887419 0.048994733322658413
14.8063 0.091651247544623032 0.040000610289272223 0.13710837021604375 -0.31414903643309156 0.13710837021604375 -0.31414903643309156 0.091651247544623032 0.040000610289272223
15.00625 0.095202262694567621 0.030602764218850199 0.10384175787367772 -0.32304174358426685 0.10384175787367772 -0.32304174358426685 0.095202262694567621 0.030602764218850199
15.206200000000001 0.097792408839019865 0.020896046838145974 0.070195898746058347 -0.32851314328342496 0.070195898746058347 -0.32851314328342496 0.097792408839019865 0.020896046838145974
15.40615 0.099395543835141265 0.010978427287936597 0.036512763153769952 -0.33057612492279054 0.036512763153769952 -0.33057612492279054 0.099395543835141265 0.010978427287936597
15.6061 0.099995487366563385 0.00095000332813177386 0.0031282828140653586 -0.32927691445892265 0.0031282828140653586 -0.32927691445892265 0.099995487366563385 0.00095000332813177386
15.806050000000001 0.099586184250057677 -0.0090880089411027667 -0.029630841210048792 -0.32469404809696761 -0.029630841210048792 -0.32469404809696761 0.099586184250057677 -0.0090880089411027667
16.006 0.098171765550027115 -0.019034296645542466 -0.061450190507677201 -0.31693704305785031 -0.061450190507677201 -0.31693704305785031 0.098171765550027115 -0.019034296645542466
16.205950000000001 0.095766506883995739 -0.028788472679834837 -0.092030512621744914 -0.30614478296729691 -0.092030512621744914 -0.30614478296729691 0.095766506883995739 -0.028788472679834837
16.405899999999999 0.092394684339915253 -0.038252088906717496 -0.12109040912885742 -0.2924836380919113 -0.12109040912885742 -0.2924836380919113 0.092394684339915253 -0.038252088906717496
16.60585 0.088090329459504624 -0.04732962978638152 -0.14836880433526711 -0.27614534308415711 -0.14836880433526711 -0.27614534308415711 0.088090329459504624 -0.04732962978638152
16.805800000000001 0.082896885760556135 -0.055929476407358826 -0.17362717300809288 -0.25734465706327342 -0.17362717300809288 -0.25734465706327342 0.082896885760556135 -0.055929476407358826
17.005749999999999 0.076866770264901407 -0.063964831189043794 -0.19665150832918776 -0.23631683273440993 -0.19665150832918776 -0.23631683273440993 0.076866770264901407 -0.063964831189043794
17.2057 0.070060844457502131 -0.071354593922898155 -0.2172540141823868 -0.21331492281838424 -0.2172540141823868 -0.21331492281838424 0.070060844457502131 -0.071354593922898155
17.405650000000001 0.062547800016233668 -0.078024180310524563 -0.23527450893020455 -0.18860695331776464 -0.23527450893020455 -0.18860695331776464 0.062547800016233668 -0.078024180310524563
17.605599999999999 0.054403465512142417 -0.083906274737168135 -0.25058153096952895 -0.16247299407325261 -0.25058153096952895 -0.16247299407325261 0.054403465512142417 -0.083906274737168135
17.80555 0.04571004107759747 -0.088941509682961606 -0.26307313954327638 -0.13520215766294025 -0.26307313954327638 -0.13520215766294025 0.04571004107759747 -0.088941509682961606
18.005500000000001 0.03655526876677178 -0.093079064914668552 -0.27267740749205205 -0.10708955796490409 -0.27267740749205205 -0.10708955796490409 0.03655526876677178 -0.093079064914668552
18.205449999999999 0.027031546981939093 -0.096277180410329954 -0.27935260582281196 -0.078433259643073197 -0.27935260582281196 -0.078433259643073197 0.027031546981939093 -0.096277180410329954
18.4054 0.017234997903612655 -0.098503577839906292 -0.28308708311704506 -0.049531249433312385 -0.28308708311704506 -0.049531249433312385 0.017234997903612655 -0.098503577839906292
18.605350000000001 0.0072644973368805313 -0.099735786347942612 -0.283898845867053 -0.02067845941024371 -0.283898845867053 -0.02067845941024371 0.0072644973368805313 -0.099735786347942612
18.805299999999999 -0.0027793232343760769 -0.099961369350158799 -0.28183484878469101 0.0078361285822353046 -0.28183484878469101 0.0078361285822353046 -0.0027793232343760769 -0.099961369350158799
19.00525 -0.01279509231319346 -0.099178050054923236 -0.27697000694333962 0.035732269437272986 -0.27697000694333962 0.035732269437272986 -0.01279509231319346 -0.099178050054923236
19.205200000000001 -0.022681721524131809 -0.09739373444273372 -0.26940594426376441 0.062741105880167569 -0.26940594426376441 0.062741105880167569 -0.022681721524131809 -0.09739373444273372
19.405149999999999 -0.032339425890356627 -0.094626431471772937 -0.25926949531293458 0.088607659603056527 -0.25926949531293458 0.088607659603056527 -0.032339425890356627 -0.094626431471772937
19.6051 -0.041670730955619746 -0.090904071314899665 -0.24671097962926422 0.11309313991356294 -0.24671097962926422 0.11309313991356294 -0.041670730955619746 -0.090904071314899665
19.805050000000001 -0.050581456586338204 -0.086264223462594228 -0.23190226979823916 0.13597704959529658 -0.23190226979823916 0.13597704959529658 -0.050581456586338204 -0.086264223462594228
20.004999999999999 -0.058981667524329075 -0.080753717537024303 -0.21503467626185155 0.1570590700751735 -0.21503467626185155 0.1570590700751735 -0.058981667524329075 -0.080753717537024303
20.20495 -0.066786581096350883 -0.074428170644323555 -0.19631667333949421 0.17616071053539892 -0.19631667333949421 0.17616071053539892 -0.066786581096350883 -0.074428170644323555
20.404900000000001 -0.073917422919004883 -0.067351426035481762 -0.1759714921558021 0.19312670826771056 -0.1759714921558021 0.19312670826771056 -0.073917422919004883 -0.067351426035481762
20.604849999999999 -0.080302221962438428 -0.059594908741395697 -0.15423460710424536 0.20782617031463771 -0.15423460710424536 0.20782617031463771 -0.080302221962438428 -0.059594908741395697
20.8048 -0.085876536948329765 -0.051236904685608813 -0.1313511431191341 0.22015344924698274 -0.1313511431191341 0.22015344924698274 -0.085876536948329765 -0.051236904685608813
21.004750000000001 -0.090584106750680585 -0.042361770550595562 -0.10757323138118201 0.23002874875851143 -0.10757323138118201 0.23002874875851143 -0.090584106750680585 -0.042361770550595562
21.204699999999999 -0.094377418234968327 -0.033059082372350689 -0.083157341144156571 0.23739845758797917 -0.083157341144156571 0.23739845758797917 -0.094377418234968327 -0.033059082372350689
21.40465 -0.097218185804503615 -0.023422731456450886 -0.058361615146599481 0.24223521307590321 -0.058361615146599481 0.24223521307590321 -0.097218185804503615 -0.023422731456450886
21.604600000000001 -0.099077737813969224 -0.013549976740436962 -0.033443235570299892 0.24453769840036846 -0.033443235570299892 0.24453769840036846 -0.099077737813969224 -0.013549976740436962
21.804549999999999 -0.099937305950097921 -0.0035404631669492398 -0.0086558467360735528 0.2443301801853037 -0.0086558467360735528 0.2443301801853037 -0.099937305950097921 -0.0035404631669492398
22.0045 -0.099788214658793339 0.006504784024899242 0.015752940299999775 0.24166179571010177 0.015752940299999775 0.24166179571010177 -0.099788214658793339 0.006504784024899242
22.204450000000001 -0.098631968706819839 0.01648437893937504 0.039543937355381267 0.23660560134686393 0.039543937355381267 0.23660560134686393 -0.098631968706819839 0.01648437893937504
22.404399999999999 -0.096480237994309367 0.026297598304054776 0.06248864053302744 0.22925739608843848 0.06248864053302744 0.22925739608843848 -0.096480237994309367 0.026297598304054776
22.60435 -0.093354739771370279 0.035845398061951216 0.084371342731880891 0.21973433608640711 0.084371342731880891 0.21973433608640711 -0.093354739771370279 0.035845398061951216
22.804300000000001 -0.089287019447577262 0.045031413015449134 0.10499107843209964 0.20817335797508488 0.10499107843209964 0.20817335797508488 -0.089287019447577262 0.045031413015449134
23.004249999999999 -0.084318132206615229 0.053762929432721165 0.12416338397294627 0.19472943039967311 0.12416338397294627 0.19472943039967311 -0.084318132206615229 0.053762929432721165
23.2042 -0.078498228639515388 0.061951820800186068 0.14172185871996623 0.17957365458068342 0.14172185871996623 0.17957365458068342 -0.078498228639515388 0.061951820800186068
23.404150000000001 -0.071886048578654535 0.069515437276531034 0.15751951480881443 0.16289123592200178 0.15751951480881443 0.16289123592200178 -0.071886048578654535 0.069515437276531034
23.604099999999999 -0.064548328241212746 0.076377439871107622 0.1714299055302197 0.14487934959850135 0.1714299055302197 0.14487934959850135 -0.064548328241212746 0.076377439871107622
23.80405 -0.056559126665742747 0.082468570927405283 0.18334802485800925 0.12574492373568968 0.18334802485800925 0.12574492373568968 -0.056559126665742747 0.082468570927405283
24.004000000000001 -0.047999078240075592 0.087727353135171604 0.19319097309355687 0.1057023642159364 0.19319097309355687 0.1057023642159364 -0.047999078240075592 0.087727353135171604
24.203949999999999 -0.038954578864738867 0.092100710016106008 0.20089838607936905 0.084971245313515964 0.20089838607936905 0.084971245313515964 -0.038954578864738867 0.092100710016106008
24.4039 -0.029516913965876287 0.095544501620611622 0.20643262789597855 0.063773990276808024 0.20643262789597855 0.063773990276808024 -0.029516913965876287 0.095544501620611622
24.603850000000001 -0.01978133715856897 0.098023970028860902 0.20977874937481322 0.042333565645875551 0.20977874937481322 0.042333565645875551 -0.01978133715856897 0.098023970028860902
24.803799999999999 -0.0098461088595338704 0.099514090159766866 0.2109442171109798 0.020871212525073859 0.2109442171109798 0.020871212525073859 -0.0098461088595338704 0.099514090159766866
25.00375 0.00018849544759254363 0.099999822347173389 0.20995841992093459 -0.00039576276647192637 0.20995841992093459 -0.00039576276647192637 0.00018849544759254363 0.099999822347173389
25.203700000000001 0.010221197284881323 0.099476264134031211 0.20687196183901521 -0.021256117256454571 0.20687196183901521 -0.021256117256454571 0.010221197284881323 0.099476264134031211
25.403649999999999 0.020150737375882882 0.097948699752514315 0.20175575276369062 -0.041506698897351355 0.20175575276369062 -0.041506698897351355 0.020150737375882882 0.097948699752514315
25.6036 0.029876897647599699 0.095432546790677517 0.1946999097306405 -0.060954354364851679 0.1946999097306405 -0.060954354364851679 0.029876897647599699 0.095432546790677517
25.803550000000001 0.039301512723674145 0.091953200583943184 0.18581248348894763 -0.079417699848215631 0.18581248348894763 -0.079417699848215631 0.039301512723674145 0.091953200583943184
26.003499999999999 0.048329460699867752 0.087545777901963606 0.17521802657423138 -0.096728739319794865 0.17521802657423138 -0.096728739319794865 0.048329460699867752 0.087545777901963606
26.20345 0.056869623202015655 0.082254762517806612 0.16305602039615333 -0.1127343166147006 0.16305602039615333 -0.1127343166147006 0.056869623202015655 0.082254762517806612
26.403400000000001 0.064835805036664793 0.076133556236705466 0.14947917997725324 -0.12729738960194809 0.14947917997725324 -0.12729738960194809 0.064835805036664793 0.076133556236705466
26.603349999999999 0.072147604152430864 0.069243939915808822 0.13465165588776301 -0.14029811676330853 0.13465165588776301 -0.14029811676330853 0.072147604152430864 0.069243939915808822
26.8033 0.078731223131628059 0.061655449914811214 0.11874715361136605 -0.15163474859302384 0.11874715361136605 -0.15163474859302384 0.078731223131628059 0.061655449914811214
27.003250000000001 0.08452021402184387 0.053444676270903803 0.10194699104678265 -0.16122431836766657 0.10194699104678265 -0.16122431836766657 0.08452021402184387 0.053444676270903803
27.203199999999999 0.08945614898993591 0.044694489681507604 0.084438115098722066 -0.16900312898808886 0.084438115098722066 -0.16900312898808886 0.08945614898993591 0.044694489681507604
27.40315 0.093489210029591013 0.035493205096793233 0.066411098340737301 -0.1749270347420375 0.066411098340737301 -0.1749270347420375 0.093489210029591013 0.035493205096793233
27.603100000000001 0.096578691770573169 0.025933690363784186 0.048058136545600892 -0.1789715189546377 0.048058136545600892 -0.1789715189546377 0.096578691770573169 0.025933690363784186
27.803049999999999 0.098693412314848628 0.01611242891842465 0.029571067481915531 -0.18113157056324486 0.029571067481915531 -0.18113157056324486 0.098693412314848628 0.01611242891842465
28.003 0.099812027953047833 0.0061285459857945606 0.011139430776847883 -0.18142136465271733 0.011139430776847883 -0.18142136465271733 0.099812027953047833 0.0061285459857945606
28.202950000000001 0.099923248584858196 -0.0039171918830502358 -0.0070514121460278226 -0.17987375389769508 -0.0070514121460278226 -0.17987375389769508 0.099923248584858196 -0.0039171918830502358
28.402899999999999 0.099025951669125201 -0.013923393840011844 -0.024822080015916102 -0.17653957966193506 -0.024822080015916102 -0.17653957966193506 0.099025951669125201 -0.013923393840011844
28.60285 0.097129193553572662 -0.023789068069864146 -0.042000878651203465 -0.17148681318461403 -0.042000878651203465 -0.17148681318461403 0.097129193553572662 -0.023789068069864146
28.802800000000001 0.094252118069792029 -0.033414641092760385 -0.05842539727334338 -0.16479953882475645 -0.05842539727334338 -0.16479953882475645 0.094252118069792029 -0.033414641092760385
29.002749999999999 0.0904237633160445 -0.042702962751593312 -0.073943980014434321 -0.15657679272434225 -0.073943980014434321 -0.15657679272434225 0.0904237633160445 -0.042702962751593312
29.2027 0.08568276857800261 -0.051560286740944816 -0.08841705997928008 -0.14693127147673438 -0.08841705997928008 -0.14693127147673438 0.08568276857800261 -0.051560286740944816
29.402650000000001 0.080076984345455474 -0.05989721678123016 -0.10171834486781177 -0.13598792644031291 -0.10171834486781177 -0.13598792644031291 0.080076984345455474 -0.05989721678123016
29.602599999999999 0.073662989361051479 -0.067629608888367942 -0.1137358448904343 -0.12388246021004669 -0.1137358448904343 -0.12388246021004669 0.073662989361051479 -0.067629608888367942
29.80255 0.066505519575465286 -0.074679420632443344 -0.12437273549791179 -0.11075974244659745 -0.12437273549791179 -0.11075974244659745 0.066505519575465286 -0.074679420632443344
30.002500000000001 0.058676814772500765 -0.080975498813861249 -0.1335480492791325 -0.096772162759917194 -0.1335480492791325 -0.096772162759917194 0.058676814772500765 -0.080975498813861249
30.202449999999999 0.050255889458593432 -0.086454297607034242 -0.14119719323489477 -0.082077938650665427 -0.14119719323489477 -0.082077938650665427 0.050255889458593432 -0.086454297607034242
30.4024 0.041327735375563571 -0.091060519923440983 -0.14727228949416465 -0.066839396628587081 -0.14727228949416465 -0.066839396628587081 0.041327735375563571 -0.091060519923440983
30.602350000000001 0.031982463685602938 -0.094747675520822666 -0.15174233938188719 -0.051221244554786792 -0.15174233938188719 -0.051221244554786792 0.031982463685602938 -0.094747675520822666
30.802299999999999 0.022314395486347213 -0.09747855022556956 -0.15459321255575509 -0.035388852998853679 -0.15459321255575509 -0.035388852998853679 0.022314395486347213 -0.09747855022556956
31.00225 0.012421109835402145 -0.099225581532470131 -0.15582746468535275 -0.019506562968296993 -0.15582746468535275 -0.019506562968296993 0.012421109835402145 -0.099225581532470131
31.202200000000001 0.0024024588925319404 -0.099971136790924287 -0.15546398883379717 -0.0037360367645249163 -0.15546398883379717 -0.0037360367645249163 0.0024024588925319404 -0.099971136790924287
31.402149999999999 -0.007640439880394854 -0.099707691169909671 -0.15353750730332186 0.011765332043820393 -0.15353750730332186 0.011765332043820393 -0.007640439880394854 -0.099707691169909671
31.6021 -0.017606224290052923 -0.09843790360551341 -0.15009791220741781 0.026845934452066358 -0.15009791220741781 0.026845934452066358 -0.017606224290052923 -0.09843790360551341
31.802050000000001 -0.027394310452366802 -0.096174589964498153 -0.1452094644196068 0.041361373626869584 -0.1452094644196068 0.041361373626869584 -0.027394310452366802 -0.096174589964498153
32.002000000000002 -0.036905907977798379 -0.092940593694759016 -0.13894986181064256 0.055175791434615595 -0.13894986181064256 0.055175791434615595 -0.036905907977798379 -0.092940593694759016
32.201949999999997 -0.046045017055038592 -0.088768555268187208 -0.13140918881136207 0.068163082318141624 -0.13140918881136207 0.068163082318141624 -0.046045017055038592 -0.088768555268187208
32.401899999999998 -0.054719397369607486 -0.083700582742935514 -0.12268876031860794 0.080207984325235321 -0.12268876031860794 0.080207984325235321 -0.054719397369607486 -0.083700582742935514
32.601849999999999 -0.062841499078148275 -0.077787826770074384 -0.11289987378937348 0.091207038546388522 -0.11289987378937348 0.091207038546388522 -0.062841499078148275 -0.077787826770074384
32.8018 -0.070329346442161544 -0.071089964334063491 -0.10216248403802931 0.10106940973466746 -0.10216248403802931 0.10106940973466746 -0.070329346442161544 -0.071089964334063491
33.001750000000001 -0.077107365202734673 -0.063674596437606978 -0.090603815759375539 0.10971756244054194 -0.090603815759375539 0.10971756244054194 -0.077107365202734673 -0.063674596437606978
33.201700000000002 -0.083107145345637817 -0.055616565810008727 -0.07835692914425911 0.11708778858219043 -0.07835692914425911 0.11708778858219043 -0.083107145345637817 -0.055616565810008727
33.401649999999997 -0.088268131558256108 -0.046997201525350432 -0.065559254134283942 0.12313058397029669 -0.065559254134283942 0.12313058397029669 -0.088268131558256108 -0.046997201525350432
33.601599999999998 -0.092538234409633879 -0.037903498154493107 -0.052351108879051908 0.12781087289906784 -0.052351108879051908 0.12781087289906784 -0.092538234409633879 -0.037903498154493107
33.801549999999999 -0.095874356085033904 -0.02842723773566689 -0.038874217816483023 0.13110808148582248 -0.038874217816483023 0.13110808148582248 -0.095874356085033904 -0.02842723773566689
34.0015 -0.098242825368817968 -0.018664063425522796 -0.025270244498601244 0.13301606197439692 -0.025270244498601244 0.13301606197439692 -0.098242825368817968 -0.018664063425522796
34.201450000000001 -0.099619737485397347 -0.0087125141802191705 -0.011679353837927637 0.13354287169770215 -0.011679353837927637 0.13354287169770215 -0.099619737485397347 -0.0087125141802191705
34.401400000000002 -0.099991195368266922 0.0013269697905698488 0.0017611821392340666 0.13271041180794876 0.0017611821392340666 0.13271041180794876 -0.099991195368266922 0.0013269697905698488
34.601349999999996 -0.099353449922012352 0.011353060758851946 0.014918321667940113 0.13055393221607484 0.014918321667940113 0.13055393221607484 -0.099353449922012352 0.011353060758851946
34.801299999999998 -0.097712937861637747 0.021264566171162014 0.02766452122781075 0.12712141042270275 0.02766452122781075 0.12712141042270275 -0.097712937861637747 0.021264566171162014
35.001249999999999 -0.095086216747303248 0.030961449977106505 0.039878922569898168 0.12247281306056625 0.039878922569898168 0.12247281306056625 -0.095086216747303248 0.030961449977106505
35.2012 -0.091499797870163033 0.040345842285411743 0.051448448278360558 0.1166792499931437 0.051448448278360558 0.1166792499931437 -0.091499797870163033 0.040345842285411743
35.401150000000001 -0.086989878675973298 0.049323027157094253 0.062268796500431191 0.10982203171794276 0.062268796500431191 0.10982203171794276 -0.086989878675973298 0.049323027157094253
35.601100000000002 -0.081601977427097974 0.057802398566040442 0.072245326693869946 0.10199164159859117 0.072245326693869946 0.10199164159859117 -0.081601977427097974 0.057802398566040442
35.801049999999996 -0.075390473790240109 0.065698374878554802 0.081293829516163763 0.093286635092204764 0.081293829516163763 0.093286635092204764 -0.075390473790240109 0.065698374878554802
36.000999999999998 -0.068418059986710716 0.072931262622107779 0.089341175299970321 0.083812478643468899 0.089341175299970321 0.083812478643468899 -0.068418059986710716 0.072931262622107779
36.200949999999999 -0.060755108044733233 0.079428060825332963 0.096325836910216289 0.073680341282019862 0.096325836910216289 0.073680341282019862 -0.060755108044733233 0.079428060825332963
36.4009 -0.052478959540056214 0.085123197811132201 0.10219828414536591 0.063005852184120525 0.10219828414536591 0.063005852184120525 -0.052478959540056214 0.085123197811132201
36.600850000000001 -0.043673144993467493 0.08995919300649359 0.10692124821434754 0.051907837543747629 0.10692124821434754 0.051907837543747629 -0.043673144993467493 0.08995919300649359
36.800800000000002 -0.034426540803766094 0.093887237089428865 0.11046985617735496 0.040507050044015697 0.11046985617735496 0.040507050044015697 -0.034426540803766094 0.093887237089428865
37.000749999999996 -0.024832472225210983 0.096867684617648039 0.11283163656955424 0.028924904030668955 0.11283163656955424 0.028924904030668955 -0.024832472225210983 0.096867684617648039
37.200699999999998 -0.014987771443012686 0.098870454166914867 0.1140063987184969 0.017282229169789852 0.1140063987184969 0.017282229169789852 -0.014987771443012686 0.098870454166914867
37.400649999999999 -0.0049918002536477202 0.099875331940513137 0.11400598950627351 0.005698054927855016 0.11400598950627351 0.005698054927855016 -0.0049918002536477202 0.099875331940513137
37.6006 0.0050545527859966613 0.099872175785518824 0.11285393250447592 -0.0057115623492190633 0.11285393250447592 -0.0057115623492190633 0.0050545527859966613 0.099872175785518824
37.800550000000001 0.015049890618951352 0.098861017556757941 0.11058495551303321 -0.016834658652155082 0.11058495551303321 -0.016834658652155082 0.015049890618951352 0.098861017556757941
38.000500000000002 0.024893331080745908 0.096852062795298122 0.10724441355314598 -0.027564417484647323 0.10724441355314598 -0.027564417484647323 0.024893331080745908 0.096852062795298122
38.200449999999996 0.034485525095218593 0.093865587724719701 0.10288761529107557 -0.037800151526385134 0.10288761529107557 -0.037800151526385134 0.034485525095218593 0.093865587724719701
38.400399999999998 0.043729659396989175 0.089931734604772953 0.097579061695833774 -0.047448202250178269 0.097579061695833774 -0.047448202250178269 0.043729659396989175 0.089931734604772953
38.600349999999999 0.052532433660184702 0.085090207507904775 0.091391606453382179 -0.056422749969953688 0.091391606453382179 -0.056422749969953688 0.052532433660184702 0.085090207507904775
38.8003 0.060805002171347822 0.079389871589154171 0.084405548267590239 -0.064646527862450329 0.084405548267590239 -0.064646527862450329 0.060805002171347822 0.079389871589154171
39.000250000000001 0.068463870542286476 0.072888259893957197 0.076707665669931382 -0.072051434616050528 0.076707665669931382 -0.072051434616050528 0.068463870542286476 0.072888259893957197
39.200200000000002 0.075431738412415711 0.065650992681610607 0.06839020533300974 -0.078579041503145319 0.06839020533300974 -0.078579041503145319 0.075431738412415711 0.065650992681610607
39.400149999999996 0.081638279635263114 0.057751115125117582 0.059549835136108939 -0.084180990835292721 0.059549835136108939 -0.084180990835292721 0.081638279635263114 0.057751115125117582
39.600099999999998 0.087020852074774821 0.049268360071958554 0.050286573363836636 -0.088819283930912554 0.050286573363836636 -0.088819283930912554 0.087020852074774821 0.049268360071958554
39.800049999999999 0.091525129847504508 0.040288343306686604 0.040702705432717146 -0.092466457891205861 0.040702705432717146 -0.092466457891205861 0.091525129847504508 0.040288343306686604
40 0.095105651629515287 0.030901699437494979 0.030901699437495166 -0.095105651629515273 0.030901699437495166 -0.095105651629515273 0.095105651629515287 0.030901699437494979
